Fe9 Pt3                                 
   1.00000000000000     
     3.8330564749225209    0.0000000000000000    0.0000000000000000
     0.0000000000000000    3.8330564749225209    0.0000000000000000
    -0.0000000000000000    0.0000000000000000   11.5026066465725165
  Fe              Pt            
     9     3
Direct
  1.0000000000000000  0.5000000000000000  0.1667552027868136
  0.0000000000000000  0.5000000000000000  0.5000000000000000
  0.0000000000000000  0.5000000000000000  0.8332447972131864
  0.5000000000000000  0.5000000000000000  0.0000000000000000
  0.5000000000000000  0.5000000000000000  0.3334378954905946
  0.5000000000000000  0.5000000000000000  0.6665621045094055
  0.5000000000000000  0.0000000000000000  0.1667552027868136
  0.5000000000000000  0.0000000000000000  0.5000000000000000
  0.5000000000000000  0.0000000000000000  0.8332447972131864
  0.0000000000000000  0.0000000000000000  0.0000000000000000
  1.0000000000000000  0.0000000000000000  0.3333898504556503
  0.0000000000000000  0.0000000000000000  0.6666101495443496
 
  0.00000000E+00  0.00000000E+00  0.00000000E+00
  0.00000000E+00  0.00000000E+00  0.00000000E+00
  0.00000000E+00  0.00000000E+00  0.00000000E+00
  0.00000000E+00  0.00000000E+00  0.00000000E+00
  0.00000000E+00  0.00000000E+00  0.00000000E+00
  0.00000000E+00  0.00000000E+00  0.00000000E+00
  0.00000000E+00  0.00000000E+00  0.00000000E+00
  0.00000000E+00  0.00000000E+00  0.00000000E+00
  0.00000000E+00  0.00000000E+00  0.00000000E+00
  0.00000000E+00  0.00000000E+00  0.00000000E+00
  0.00000000E+00  0.00000000E+00  0.00000000E+00
  0.00000000E+00  0.00000000E+00  0.00000000E+00
