Fe9 Pt3                                 
   1.00000000000000     
     3.8329983063051651    0.0000000000000000    0.0000000000000000
     0.0000000000000000    3.8329983063051651    0.0000000000000000
     0.0000000000000000    0.0000000000000000   11.5029557705470911
  Fe              Pt            
     9     3
Direct
  0.0000000000000000  0.5000000000000000  0.1667604825142703
  0.0000000000000000  0.5000000000000000  0.5000000000000000
  0.0000000000000000  0.5000000000000000  0.8332395174857297
  0.5000000000000000  0.5000000000000000  0.0000000000000000
  0.5000000000000000  0.5000000000000000  0.3334491184959418
  0.5000000000000000  0.5000000000000000  0.6665508815040582
  0.5000000000000000  0.0000000000000000  0.1667604825142703
  0.5000000000000000  0.0000000000000000  0.5000000000000000
  0.5000000000000000  0.0000000000000000  0.8332395174857297
  0.0000000000000000  0.0000000000000000  0.0000000000000000
  0.0000000000000000  0.0000000000000000  0.3333953125482481
  0.0000000000000000  0.0000000000000000  0.6666046874517519
 
  0.00000000E+00  0.00000000E+00  0.00000000E+00
  0.00000000E+00  0.00000000E+00  0.00000000E+00
  0.00000000E+00  0.00000000E+00  0.00000000E+00
  0.00000000E+00  0.00000000E+00  0.00000000E+00
  0.00000000E+00  0.00000000E+00  0.00000000E+00
  0.00000000E+00  0.00000000E+00  0.00000000E+00
  0.00000000E+00  0.00000000E+00  0.00000000E+00
  0.00000000E+00  0.00000000E+00  0.00000000E+00
  0.00000000E+00  0.00000000E+00  0.00000000E+00
  0.00000000E+00  0.00000000E+00  0.00000000E+00
  0.00000000E+00  0.00000000E+00  0.00000000E+00
  0.00000000E+00  0.00000000E+00  0.00000000E+00
