Fe9 Pt3                                 
   1.00000000000000     
     3.5828563713083579    0.0000000000000000    0.0000000000000000
     0.0000000000000000    3.5828563713083579    0.0000000000000000
     0.0000000000000000    0.0000000000000000   10.8281933751779214
  Fe              Pt            
     9     3
Direct
  1.0000000000000000  0.5000000000000000  0.1664511000490409
  0.0000000000000000  0.5000000000000000  0.4992277298704090
  0.0000000000000000  0.5000000000000000  0.8349286004445635
  0.5000000000000000  0.5000000000000000  0.0032257480210462
  0.5000000000000000  0.5000000000000000  0.3331922422482559
  0.5000000000000000  0.5000000000000000  0.6652623126346225
  0.5000000000000000  0.0000000000000000  0.1664511000490409
  0.5000000000000000  0.0000000000000000  0.4992277298704090
  0.5000000000000000  0.0000000000000000  0.8349286004445635
  1.0000000000000000  0.0000000000000000  0.9992637885507717
  1.0000000000000000  0.0000000000000000  0.3306230801567123
  1.0000000000000000  0.0000000000000000  0.6672179676605999
 
  0.00000000E+00  0.00000000E+00  0.00000000E+00
  0.00000000E+00  0.00000000E+00  0.00000000E+00
  0.00000000E+00  0.00000000E+00  0.00000000E+00
  0.00000000E+00  0.00000000E+00  0.00000000E+00
  0.00000000E+00  0.00000000E+00  0.00000000E+00
  0.00000000E+00  0.00000000E+00  0.00000000E+00
  0.00000000E+00  0.00000000E+00  0.00000000E+00
  0.00000000E+00  0.00000000E+00  0.00000000E+00
  0.00000000E+00  0.00000000E+00  0.00000000E+00
  0.00000000E+00  0.00000000E+00  0.00000000E+00
  0.00000000E+00  0.00000000E+00  0.00000000E+00
  0.00000000E+00  0.00000000E+00  0.00000000E+00
