Fe9 Pt3                                 
   1.00000000000000     
     3.5824243606311077    0.0000000000000000    0.0000000000000000
     0.0000000000000000    3.5824243606311077    0.0000000000000000
     0.0000000000000000    0.0000000000000000   10.8308051133418886
  Fe              Pt            
     9     3
Direct
  1.0000000000000000  0.5000000000000000  0.1664333133178803
  1.0000000000000000  0.5000000000000000  0.4992522601849519
  1.0000000000000000  0.5000000000000000  0.8348778364055334
  0.5000000000000000  0.5000000000000000  0.0032538410572829
  0.5000000000000000  0.5000000000000000  0.3331895762987469
  0.5000000000000000  0.5000000000000000  0.6652957330024387
  0.5000000000000000  1.0000000000000000  0.1664333133178803
  0.5000000000000000  1.0000000000000000  0.4992522601849519
  0.5000000000000000  1.0000000000000000  0.8348778364055334
  1.0000000000000000  1.0000000000000000  0.9993033466455767
  1.0000000000000000  1.0000000000000000  0.3305954490249401
  1.0000000000000000  1.0000000000000000  0.6672352341543188
 
  0.00000000E+00  0.00000000E+00  0.00000000E+00
  0.00000000E+00  0.00000000E+00  0.00000000E+00
  0.00000000E+00  0.00000000E+00  0.00000000E+00
  0.00000000E+00  0.00000000E+00  0.00000000E+00
  0.00000000E+00  0.00000000E+00  0.00000000E+00
  0.00000000E+00  0.00000000E+00  0.00000000E+00
  0.00000000E+00  0.00000000E+00  0.00000000E+00
  0.00000000E+00  0.00000000E+00  0.00000000E+00
  0.00000000E+00  0.00000000E+00  0.00000000E+00
  0.00000000E+00  0.00000000E+00  0.00000000E+00
  0.00000000E+00  0.00000000E+00  0.00000000E+00
  0.00000000E+00  0.00000000E+00  0.00000000E+00
