ALGO = All
EDIFF = 1e-06
EDIFFG = -0.01
ENCUT = 520
GGA = Pe
IBRION = 2
ISIF = 4
ISMEAR = 1
ISPIN = 2
KPAR = 4
LCHARG = True
LORBIT = 11
LREAL = False
LWAVE = False
MAGMOM = 1*-2.012 1*2.315 1*2.199 1*-2.049 1*2.166 1*2.366 1*-2.012 1*2.315 1*2.199 1*-0.035 1*0.064 1*0.218
NELM = 200
NSW = 100
PREC = Accurate
SIGMA = 0.2
