ALGO = Normal
EDIFF = 1e-06
EDIFFG = -0.01
ENCUT = 520
GGA = Pe
IBRION = -1
ISIF = 4
ISMEAR = -5
ISPIN = 2
KPAR = 4
LCHARG = True
LORBIT = 11
LREAL = False
LWAVE = False
MAGMOM = 1*-2.01 1*2.316 1*2.2 1*-2.049 1*2.168 1*2.365 1*-2.01 1*2.316 1*2.2 1*-0.035 1*0.065 1*0.218
NELM = 200
NSW = 0
PREC = Accurate
SIGMA = 0.2
