ALGO = All
EDIFF = 1e-06
EDIFFG = -0.01
ENCUT = 520
GGA = Pe
IBRION = 2
ISIF = 4
ISMEAR = 1
ISPIN = 2
KPAR = 4
LCHARG = True
LORBIT = 11
LREAL = False
LWAVE = False
MAGMOM = 1*-2.117 1*2.395 1*2.281 1*-2.199 1*2.281 1*2.453 1*-2.117 1*2.395 1*2.281 1*-0.04 1*0.073 1*0.232
NELM = 200
NSW = 100
PREC = Accurate
SIGMA = 0.2
