ALGO = All
EDIFF = 1e-06
EDIFFG = -0.01
ENCUT = 520
GGA = Pe
IBRION = 2
ISIF = 4
ISMEAR = 1
ISPIN = 2
KPAR = 4
LCHARG = True
LORBIT = 11
LREAL = False
LWAVE = False
MAGMOM = 1*2.667 1*2.668 1*2.667 1*2.666 2*2.668 1*2.667 1*2.668 1*2.667 3*0.3
NELM = 200
NSW = 100
PREC = Accurate
SIGMA = 0.2
