Fe9 Pt3                                 
   1.00000000000000     
     3.6983434869969209    0.0000000000000000    0.0000000000000000
     0.0000000000000000    3.6983434869969209   -0.0000000000000000
     0.0000000000000000   -0.0000000000000000   11.2591662654373028
  Fe              Pt            
     9     3
Direct
  0.0000000000000000  0.5000000000000000  0.1666575801054257
  0.0000000000000000  0.5000000000000000  0.4994602288923435
  0.0000000000000000  0.5000000000000000  0.8338816600976304
  0.5000000000000000  0.5000000000000000  0.0060057858717479
  0.5000000000000000  0.5000000000000000  0.3273821173632119
  0.5000000000000000  0.5000000000000000  0.6666318057146398
  0.5000000000000000  0.0000000000000000  0.1666575801054257
  0.5000000000000000  0.0000000000000000  0.4994602288923435
  0.5000000000000000  0.0000000000000000  0.8338816600976304
  0.0000000000000000  0.0000000000000000  0.9976519298637692
  0.0000000000000000  0.0000000000000000  0.3356422437665519
  0.0000000000000000  0.0000000000000000  0.6666871792292587
 
  0.00000000E+00  0.00000000E+00  0.00000000E+00
  0.00000000E+00  0.00000000E+00  0.00000000E+00
  0.00000000E+00  0.00000000E+00  0.00000000E+00
  0.00000000E+00  0.00000000E+00  0.00000000E+00
  0.00000000E+00  0.00000000E+00  0.00000000E+00
  0.00000000E+00  0.00000000E+00  0.00000000E+00
  0.00000000E+00  0.00000000E+00  0.00000000E+00
  0.00000000E+00  0.00000000E+00  0.00000000E+00
  0.00000000E+00  0.00000000E+00  0.00000000E+00
  0.00000000E+00  0.00000000E+00  0.00000000E+00
  0.00000000E+00  0.00000000E+00  0.00000000E+00
  0.00000000E+00  0.00000000E+00  0.00000000E+00
