Fe9 Pt3                                 
   1.00000000000000     
     3.8100057154308073    0.0000000000000000    0.0000000000000000
     0.0000000000000000    3.8100057154308073    0.0000000000000000
     0.0000000000000000    0.0000000000000000   11.4355441174682273
  Fe              Pt            
     9     3
Direct
  0.0000000000000000  0.5000000000000000  0.1667736875032517
  0.0000000000000000  0.5000000000000000  0.5000000000000000
  0.0000000000000000  0.5000000000000000  0.8332263124967483
  0.5000000000000000  0.5000000000000000  0.0000000000000000
  0.5000000000000000  0.5000000000000000  0.3334770946892078
  0.5000000000000000  0.5000000000000000  0.6665229053107922
  0.5000000000000000  0.0000000000000000  0.1667736875032517
  0.5000000000000000  0.0000000000000000  0.5000000000000000
  0.5000000000000000  0.0000000000000000  0.8332263124967483
  0.0000000000000000  0.0000000000000000  0.0000000000000000
  0.0000000000000000  0.0000000000000000  0.3334084074629402
  0.0000000000000000  0.0000000000000000  0.6665915925370598
 
  0.00000000E+00  0.00000000E+00  0.00000000E+00
  0.00000000E+00  0.00000000E+00  0.00000000E+00
  0.00000000E+00  0.00000000E+00  0.00000000E+00
  0.00000000E+00  0.00000000E+00  0.00000000E+00
  0.00000000E+00  0.00000000E+00  0.00000000E+00
  0.00000000E+00  0.00000000E+00  0.00000000E+00
  0.00000000E+00  0.00000000E+00  0.00000000E+00
  0.00000000E+00  0.00000000E+00  0.00000000E+00
  0.00000000E+00  0.00000000E+00  0.00000000E+00
  0.00000000E+00  0.00000000E+00  0.00000000E+00
  0.00000000E+00  0.00000000E+00  0.00000000E+00
  0.00000000E+00  0.00000000E+00  0.00000000E+00
