ALGO = Normal
EDIFF = 1e-06
EDIFFG = -0.01
ENCUT = 520
GGA = Pe
IBRION = -1
ISIF = 4
ISMEAR = -5
ISPIN = 2
KPAR = 4
LCHARG = True
LORBIT = 11
LREAL = False
LWAVE = False
MAGMOM = 1*2.843 1*2.841 1*2.843 1*2.845 2*2.842 1*2.843 1*2.841 1*2.843 3*0.304
NELM = 200
NSW = 0
PREC = Accurate
SIGMA = 0.2
