Fe9 Pt3                                 
   1.00000000000000     
     3.7415143821063421    0.0000000000000000    0.0000000000000000
     0.0000000000000000    3.7415143821063421    0.0000000000000000
     0.0000000000000000   -0.0000000000000000   11.4294450696292724
  Fe              Pt            
     9     3
Direct
  0.0000000000000000  0.5000000000000000  0.1666518111518334
  0.0000000000000000  0.5000000000000000  0.4995704349526856
  0.0000000000000000  0.5000000000000000  0.8337798314307500
  0.5000000000000000  0.5000000000000000  0.0080657986742997
  0.5000000000000000  0.5000000000000000  0.3252991341418176
  0.5000000000000000  0.5000000000000000  0.6666477784921501
  0.5000000000000000  0.0000000000000000  0.1666518111518334
  0.5000000000000000  0.0000000000000000  0.4995704349526856
  0.5000000000000000  1.0000000000000000  0.8337798314307500
  0.0000000000000000  0.0000000000000000  0.9972524405941618
  0.0000000000000000  1.0000000000000000  0.3360844008146400
  0.0000000000000000  0.0000000000000000  0.6666462922123714
 
  0.00000000E+00  0.00000000E+00  0.00000000E+00
  0.00000000E+00  0.00000000E+00  0.00000000E+00
  0.00000000E+00  0.00000000E+00  0.00000000E+00
  0.00000000E+00  0.00000000E+00  0.00000000E+00
  0.00000000E+00  0.00000000E+00  0.00000000E+00
  0.00000000E+00  0.00000000E+00  0.00000000E+00
  0.00000000E+00  0.00000000E+00  0.00000000E+00
  0.00000000E+00  0.00000000E+00  0.00000000E+00
  0.00000000E+00  0.00000000E+00  0.00000000E+00
  0.00000000E+00  0.00000000E+00  0.00000000E+00
  0.00000000E+00  0.00000000E+00  0.00000000E+00
  0.00000000E+00  0.00000000E+00  0.00000000E+00
