Fe9 Pt3                                 
   1.00000000000000     
     3.7418067877483550    0.0000000000000000    0.0000000000000000
     0.0000000000000000    3.7418067877483550    0.0000000000000000
     0.0000000000000000    0.0000000000000000   11.4276588183178518
  Fe              Pt            
     9     3
Direct
  0.0000000000000000  0.5000000000000000  0.1666739875378368
  0.0000000000000000  0.5000000000000000  0.4995848354346983
  0.0000000000000000  0.5000000000000000  0.8337312688881638
  0.5000000000000000  0.5000000000000000  0.0081185626783096
  0.5000000000000000  0.5000000000000000  0.3252625242240678
  0.5000000000000000  0.5000000000000000  0.6666496497857985
  0.5000000000000000  0.0000000000000000  0.1666739875378368
  0.5000000000000000  0.0000000000000000  0.4995848354346983
  0.5000000000000000  0.0000000000000000  0.8337312688881638
  0.0000000000000000  0.0000000000000000  0.9973096962107620
  0.0000000000000000  0.0000000000000000  0.3359771110833586
  0.0000000000000000  0.0000000000000000  0.6667022722962910
 
  0.00000000E+00  0.00000000E+00  0.00000000E+00
  0.00000000E+00  0.00000000E+00  0.00000000E+00
  0.00000000E+00  0.00000000E+00  0.00000000E+00
  0.00000000E+00  0.00000000E+00  0.00000000E+00
  0.00000000E+00  0.00000000E+00  0.00000000E+00
  0.00000000E+00  0.00000000E+00  0.00000000E+00
  0.00000000E+00  0.00000000E+00  0.00000000E+00
  0.00000000E+00  0.00000000E+00  0.00000000E+00
  0.00000000E+00  0.00000000E+00  0.00000000E+00
  0.00000000E+00  0.00000000E+00  0.00000000E+00
  0.00000000E+00  0.00000000E+00  0.00000000E+00
  0.00000000E+00  0.00000000E+00  0.00000000E+00
