Fe9 Pt3                                 
   1.00000000000000     
     3.6769393116623217    0.0000000000000000    0.0000000000000000
     0.0000000000000000    3.6769393116623217   -0.0000000000000000
     0.0000000000000000    0.0000000000000000   11.1687359522428622
  Fe              Pt            
     9     3
Direct
  0.0000000000000000  0.5000000000000000  0.1666461059027472
  0.0000000000000000  0.5000000000000000  0.4993512256287738
  0.0000000000000000  0.5000000000000000  0.8339991929777777
  0.5000000000000000  0.5000000000000000  0.0050723617834228
  0.5000000000000000  0.5000000000000000  0.3282311477474483
  0.5000000000000000  0.5000000000000000  0.6666995558688336
  0.5000000000000000  0.0000000000000000  0.1666461059027472
  0.5000000000000000  0.0000000000000000  0.4993512256287738
  0.5000000000000000  0.0000000000000000  0.8339991929777777
  0.0000000000000000  0.0000000000000000  0.9978029564588858
  0.0000000000000000  0.0000000000000000  0.3355142780322592
  0.0000000000000000  0.0000000000000000  0.6666866510905389
 
  0.00000000E+00  0.00000000E+00  0.00000000E+00
  0.00000000E+00  0.00000000E+00  0.00000000E+00
  0.00000000E+00  0.00000000E+00  0.00000000E+00
  0.00000000E+00  0.00000000E+00  0.00000000E+00
  0.00000000E+00  0.00000000E+00  0.00000000E+00
  0.00000000E+00  0.00000000E+00  0.00000000E+00
  0.00000000E+00  0.00000000E+00  0.00000000E+00
  0.00000000E+00  0.00000000E+00  0.00000000E+00
  0.00000000E+00  0.00000000E+00  0.00000000E+00
  0.00000000E+00  0.00000000E+00  0.00000000E+00
  0.00000000E+00  0.00000000E+00  0.00000000E+00
  0.00000000E+00  0.00000000E+00  0.00000000E+00
