Fe9 Pt3                                 
   1.00000000000000     
     3.6773501188422566    0.0000000000000000    0.0000000000000000
     0.0000000000000000    3.6773501188422566    0.0000000000000000
     0.0000000000000000   -0.0000000000000000   11.1662407094775631
  Fe              Pt            
     9     3
Direct
  0.0000000000000000  0.5000000000000000  0.1666288754308795
  0.0000000000000000  0.5000000000000000  0.4993793996079080
  0.0000000000000000  0.5000000000000000  0.8339972289215635
  0.5000000000000000  0.5000000000000000  0.0051159459612229
  0.5000000000000000  0.5000000000000000  0.3281862107066349
  0.5000000000000000  0.5000000000000000  0.6667021110926513
  0.5000000000000000  0.0000000000000000  0.1666288754308795
  0.5000000000000000  0.0000000000000000  0.4993793996079080
  0.5000000000000000  0.0000000000000000  0.8339972289215635
  0.0000000000000000  0.0000000000000000  0.9978608177964052
  0.0000000000000000  0.0000000000000000  0.3354373920930217
  0.0000000000000000  0.0000000000000000  0.6666865144293405
 
  0.00000000E+00  0.00000000E+00  0.00000000E+00
  0.00000000E+00  0.00000000E+00  0.00000000E+00
  0.00000000E+00  0.00000000E+00  0.00000000E+00
  0.00000000E+00  0.00000000E+00  0.00000000E+00
  0.00000000E+00  0.00000000E+00  0.00000000E+00
  0.00000000E+00  0.00000000E+00  0.00000000E+00
  0.00000000E+00  0.00000000E+00  0.00000000E+00
  0.00000000E+00  0.00000000E+00  0.00000000E+00
  0.00000000E+00  0.00000000E+00  0.00000000E+00
  0.00000000E+00  0.00000000E+00  0.00000000E+00
  0.00000000E+00  0.00000000E+00  0.00000000E+00
  0.00000000E+00  0.00000000E+00  0.00000000E+00
