Fe9 Pt3                                 
   1.00000000000000     
     3.5832547895751858    0.0000000164134361    0.0000000019757179
     0.0000000168971327    3.5832546851293658    0.0000000003707328
     0.0000000302456380   -0.0000000245305061   10.8257858741243691
  Fe              Pt            
     9     3
Direct
  0.9999999830644033  0.4999999982340665  0.1666379677935195
  0.0000000303273259  0.4999999891183991  0.4996845323292603
  0.0000000034914032  0.5000000055040571  0.8336775925376053
  0.4999999705183911  0.4999999649365221  0.0014341077012197
  0.5000000318143548  0.5000000335511627  0.3318688871866075
  0.5000000023791522  0.4999999979308861  0.6666975429856412
  0.4999999873076260  0.9999999952050856  0.1666379648098673
  0.5000000088733559  0.0000000103878633  0.4996845408068062
  0.4999999938220450  0.0000000205745283  0.8336775830334462
  0.0000000034916577  0.9999999728078171  0.9979906304826698
  0.9999999881404006  0.0000000156524303  0.3353300344644260
  0.9999999967698842  0.9999999960971815  0.6666786158688598
 
  0.00000000E+00  0.00000000E+00  0.00000000E+00
  0.00000000E+00  0.00000000E+00  0.00000000E+00
  0.00000000E+00  0.00000000E+00  0.00000000E+00
  0.00000000E+00  0.00000000E+00  0.00000000E+00
  0.00000000E+00  0.00000000E+00  0.00000000E+00
  0.00000000E+00  0.00000000E+00  0.00000000E+00
  0.00000000E+00  0.00000000E+00  0.00000000E+00
  0.00000000E+00  0.00000000E+00  0.00000000E+00
  0.00000000E+00  0.00000000E+00  0.00000000E+00
  0.00000000E+00  0.00000000E+00  0.00000000E+00
  0.00000000E+00  0.00000000E+00  0.00000000E+00
  0.00000000E+00  0.00000000E+00  0.00000000E+00
