Fe9 Pt3                                 
   1.00000000000000     
     3.7393196706927565    0.0000000000000000   -0.0000000000000000
     0.0000000000000000    3.7393196706927565    0.0000000000000000
    -0.0000000000000000   -0.0000000000000000   11.2283118008753764
  Fe              Pt            
     9     3
Direct
  1.0000000000000000  0.5000000000000000  0.1665707545935558
  1.0000000000000000  0.5000000000000000  0.5000000000000000
  1.0000000000000000  0.5000000000000000  0.8334292454064441
  0.5000000000000000  0.5000000000000000  1.0000000000000000
  0.5000000000000000  0.5000000000000000  0.3331339046472254
  0.5000000000000000  0.5000000000000000  0.6668660953527745
  0.5000000000000000  0.0000000000000000  0.1665707545935558
  0.5000000000000000  0.0000000000000000  0.5000000000000000
  0.5000000000000000  0.0000000000000000  0.8334292454064441
  1.0000000000000000  0.0000000000000000  1.0000000000000000
  1.0000000000000000  0.0000000000000000  0.3332441980194399
  1.0000000000000000  0.0000000000000000  0.6667558019805601
 
  0.00000000E+00  0.00000000E+00  0.00000000E+00
  0.00000000E+00  0.00000000E+00  0.00000000E+00
  0.00000000E+00  0.00000000E+00  0.00000000E+00
  0.00000000E+00  0.00000000E+00  0.00000000E+00
  0.00000000E+00  0.00000000E+00  0.00000000E+00
  0.00000000E+00  0.00000000E+00  0.00000000E+00
  0.00000000E+00  0.00000000E+00  0.00000000E+00
  0.00000000E+00  0.00000000E+00  0.00000000E+00
  0.00000000E+00  0.00000000E+00  0.00000000E+00
  0.00000000E+00  0.00000000E+00  0.00000000E+00
  0.00000000E+00  0.00000000E+00  0.00000000E+00
  0.00000000E+00  0.00000000E+00  0.00000000E+00
