Fe9 Pt3                                 
   1.00000000000000     
     3.7393617269105204    0.0000000000000000    0.0000000000000000
     0.0000000000000000    3.7393617269105204    0.0000000000000000
     0.0000000000000000    0.0000000000000000   11.2280592349535997
  Fe              Pt            
     9     3
Direct
  0.0000000000000000  0.5000000000000000  0.1666167076094993
  0.0000000000000000  0.5000000000000000  0.5000000000000000
  0.0000000000000000  0.5000000000000000  0.8333832923905007
  0.5000000000000000  0.5000000000000000  0.0000000000000000
  0.5000000000000000  0.5000000000000000  0.3331939605662342
  0.5000000000000000  0.5000000000000000  0.6668060394337658
  0.5000000000000000  0.0000000000000000  0.1666167076094993
  0.5000000000000000  0.0000000000000000  0.5000000000000000
  0.5000000000000000  0.0000000000000000  0.8333832923905007
  0.0000000000000000  0.0000000000000000  0.0000000000000000
  0.0000000000000000  0.0000000000000000  0.3332870323369619
  0.0000000000000000  0.0000000000000000  0.6667129676630381
 
  0.00000000E+00  0.00000000E+00  0.00000000E+00
  0.00000000E+00  0.00000000E+00  0.00000000E+00
  0.00000000E+00  0.00000000E+00  0.00000000E+00
  0.00000000E+00  0.00000000E+00  0.00000000E+00
  0.00000000E+00  0.00000000E+00  0.00000000E+00
  0.00000000E+00  0.00000000E+00  0.00000000E+00
  0.00000000E+00  0.00000000E+00  0.00000000E+00
  0.00000000E+00  0.00000000E+00  0.00000000E+00
  0.00000000E+00  0.00000000E+00  0.00000000E+00
  0.00000000E+00  0.00000000E+00  0.00000000E+00
  0.00000000E+00  0.00000000E+00  0.00000000E+00
  0.00000000E+00  0.00000000E+00  0.00000000E+00
