ALGO = Normal
EDIFF = 1e-06
EDIFFG = -0.01
ENCUT = 520
GGA = Pe
IBRION = -1
ISIF = 4
ISMEAR = -5
ISPIN = 2
KPAR = 4
LCHARG = True
LORBIT = 11
LREAL = False
LWAVE = False
MAGMOM = 1*2.746 1*2.748 2*2.746 2*2.748 1*2.746 1*2.748 1*2.746 3*0.311
NELM = 200
NSW = 0
PREC = Accurate
SIGMA = 0.2
