Fe9 Pt3                                 
   1.00000000000000     
     3.7199905778163393    0.0000000000000000    0.0000000000000000
     0.0000000000000000    3.7199905778163393   -0.0000000000000000
     0.0000000000000000    0.0000000000000000   11.3452996962346546
  Fe              Pt            
     9     3
Direct
  0.0000000000000000  0.5000000000000000  0.1666915175000566
  1.0000000000000000  0.5000000000000000  0.4996096164364079
  0.0000000000000000  0.5000000000000000  0.8336948439117899
  0.5000000000000000  0.5000000000000000  0.0066580980420544
  0.5000000000000000  0.5000000000000000  0.3267595365380755
  0.5000000000000000  0.5000000000000000  0.6665687941338201
  0.5000000000000000  0.0000000000000000  0.1666915175000566
  0.5000000000000000  0.0000000000000000  0.4996096164364079
  0.5000000000000000  0.0000000000000000  0.8336948439117899
  0.0000000000000000  0.0000000000000000  0.9974784932295390
  0.0000000000000000  1.0000000000000000  0.3358599578227358
  0.0000000000000000  0.0000000000000000  0.6666831645372451
 
  0.00000000E+00  0.00000000E+00  0.00000000E+00
  0.00000000E+00  0.00000000E+00  0.00000000E+00
  0.00000000E+00  0.00000000E+00  0.00000000E+00
  0.00000000E+00  0.00000000E+00  0.00000000E+00
  0.00000000E+00  0.00000000E+00  0.00000000E+00
  0.00000000E+00  0.00000000E+00  0.00000000E+00
  0.00000000E+00  0.00000000E+00  0.00000000E+00
  0.00000000E+00  0.00000000E+00  0.00000000E+00
  0.00000000E+00  0.00000000E+00  0.00000000E+00
  0.00000000E+00  0.00000000E+00  0.00000000E+00
  0.00000000E+00  0.00000000E+00  0.00000000E+00
  0.00000000E+00  0.00000000E+00  0.00000000E+00
