Fe9 Pt3                                 
   1.00000000000000     
     3.8302803509482213    0.0000000000000000    0.0000000000000000
     0.0000000000000000    3.8302803509482213   -0.0000000000000000
     0.0000000000000000    0.0000000000000000   11.7237708634061963
  Fe              Pt            
     9     3
Direct
  0.0000000000000000  0.5000000000000000  0.1666998715233859
  0.0000000000000000  0.5000000000000000  0.5002130973871208
  0.0000000000000000  0.5000000000000000  0.8330671775585761
  0.5000000000000000  0.5000000000000000  0.0126767856784803
  0.5000000000000000  0.5000000000000000  0.3207046371095104
  0.5000000000000000  0.5000000000000000  0.6666421925017564
  0.5000000000000000  0.0000000000000000  0.1666998715233859
  0.5000000000000000  1.0000000000000000  0.5002130973871208
  0.5000000000000000  0.0000000000000000  0.8330671775585761
  0.0000000000000000  0.0000000000000000  0.9960212398388292
  0.0000000000000000  1.0000000000000000  0.3372930301718680
  0.0000000000000000  0.0000000000000000  0.6667018217613901
 
  0.00000000E+00  0.00000000E+00  0.00000000E+00
  0.00000000E+00  0.00000000E+00  0.00000000E+00
  0.00000000E+00  0.00000000E+00  0.00000000E+00
  0.00000000E+00  0.00000000E+00  0.00000000E+00
  0.00000000E+00  0.00000000E+00  0.00000000E+00
  0.00000000E+00  0.00000000E+00  0.00000000E+00
  0.00000000E+00  0.00000000E+00  0.00000000E+00
  0.00000000E+00  0.00000000E+00  0.00000000E+00
  0.00000000E+00  0.00000000E+00  0.00000000E+00
  0.00000000E+00  0.00000000E+00  0.00000000E+00
  0.00000000E+00  0.00000000E+00  0.00000000E+00
  0.00000000E+00  0.00000000E+00  0.00000000E+00
