Fe9 Pt3                                 
   1.00000000000000     
     3.7450828685342326    0.0000000000000000    0.0000000000000000
     0.0000000000000000    3.7450828685342326    0.0000000000000000
     0.0000000000000000   -0.0000000000000000   11.4076744494629470
  Fe              Pt            
     9     3
Direct
  0.0000000000000000  0.5000000000000000  0.1667154390130809
  0.0000000000000000  0.5000000000000000  0.4992195573942948
  0.0000000000000000  0.5000000000000000  0.8328036670355833
  0.5000000000000000  0.5000000000000000  0.0060821097025833
  0.5000000000000000  0.5000000000000000  0.3401543519351982
  0.5000000000000000  0.5000000000000000  0.6634412443252461
  0.5000000000000000  0.0000000000000000  0.1667154390130809
  0.5000000000000000  0.0000000000000000  0.4992195573942948
  0.5000000000000000  0.0000000000000000  0.8328036670355833
  0.0000000000000000  0.0000000000000000  0.9977878142350799
  0.0000000000000000  0.0000000000000000  0.3291194659374552
  0.0000000000000000  0.0000000000000000  0.6659376869784910
 
  0.00000000E+00  0.00000000E+00  0.00000000E+00
  0.00000000E+00  0.00000000E+00  0.00000000E+00
  0.00000000E+00  0.00000000E+00  0.00000000E+00
  0.00000000E+00  0.00000000E+00  0.00000000E+00
  0.00000000E+00  0.00000000E+00  0.00000000E+00
  0.00000000E+00  0.00000000E+00  0.00000000E+00
  0.00000000E+00  0.00000000E+00  0.00000000E+00
  0.00000000E+00  0.00000000E+00  0.00000000E+00
  0.00000000E+00  0.00000000E+00  0.00000000E+00
  0.00000000E+00  0.00000000E+00  0.00000000E+00
  0.00000000E+00  0.00000000E+00  0.00000000E+00
  0.00000000E+00  0.00000000E+00  0.00000000E+00
