Fe9 Pt3                                 
   1.00000000000000     
     3.7438286521383257    0.0000000000000000    0.0000000000000000
     0.0000000000000000    3.7438286521383257    0.0000000000000000
     0.0000000000000000    0.0000000000000000   11.4153190776050799
  Fe              Pt            
     9     3
Direct
  0.0000000000000000  0.5000000000000000  0.1664654209034708
  0.0000000000000000  0.5000000000000000  0.4994306345530148
  0.0000000000000000  0.5000000000000000  0.8329897389382097
  0.5000000000000000  0.5000000000000000  0.0056807276931750
  0.5000000000000000  0.5000000000000000  0.3396535266028593
  0.5000000000000000  0.5000000000000000  0.6639886855943615
  0.5000000000000000  0.0000000000000000  0.1664654209034708
  0.5000000000000000  0.0000000000000000  0.4994306345530148
  0.5000000000000000  0.0000000000000000  0.8329897389382097
  0.0000000000000000  0.0000000000000000  0.9977039527575187
  0.0000000000000000  0.0000000000000000  0.3290462276269324
  0.0000000000000000  0.0000000000000000  0.6661552909357340
 
  0.00000000E+00  0.00000000E+00  0.00000000E+00
  0.00000000E+00  0.00000000E+00  0.00000000E+00
  0.00000000E+00  0.00000000E+00  0.00000000E+00
  0.00000000E+00  0.00000000E+00  0.00000000E+00
  0.00000000E+00  0.00000000E+00  0.00000000E+00
  0.00000000E+00  0.00000000E+00  0.00000000E+00
  0.00000000E+00  0.00000000E+00  0.00000000E+00
  0.00000000E+00  0.00000000E+00  0.00000000E+00
  0.00000000E+00  0.00000000E+00  0.00000000E+00
  0.00000000E+00  0.00000000E+00  0.00000000E+00
  0.00000000E+00  0.00000000E+00  0.00000000E+00
  0.00000000E+00  0.00000000E+00  0.00000000E+00
