ALGO = Normal
EDIFF = 1e-06
EDIFFG = -0.01
ENCUT = 520
GGA = Pe
IBRION = -1
ISIF = 4
ISMEAR = -5
ISPIN = 2
KPAR = 4
LCHARG = True
LORBIT = 11
LREAL = False
LWAVE = False
MAGMOM = 1*-2.624 1*2.682 1*2.667 1*-2.667 1*2.653 1*2.81 1*-2.624 1*2.682 1*2.667 1*-0.046 1*0.054 1*0.275
NELM = 200
NSW = 0
PREC = Accurate
SIGMA = 0.2
