ALGO = All
EDIFF = 1e-06
EDIFFG = -0.01
ENCUT = 520
GGA = Pe
IBRION = 2
ISIF = 4
ISMEAR = 1
ISPIN = 2
KPAR = 4
LCHARG = True
LORBIT = 11
LREAL = False
LWAVE = False
MAGMOM = 1*-2.626 1*2.676 1*2.672 1*-2.67 1*2.647 1*2.81 1*-2.626 1*2.676 1*2.672 1*-0.047 1*0.052 1*0.276
NELM = 200
NSW = 100
PREC = Accurate
SIGMA = 0.2
