Fe9 Pt3                                 
   1.00000000000000     
     3.6082462936984392    0.0000000000000000    0.0000000000000000
     0.0000000000000000    3.6082462936984392   -0.0000000000000000
     0.0000000000000000   -0.0000000000000000   10.9067660088929284
  Fe              Pt            
     9     3
Direct
  0.0000000000000000  0.5000000000000000  0.1666394750146377
  0.0000000000000000  0.5000000000000000  0.4996255490207877
  0.0000000000000000  0.5000000000000000  0.8337376979821386
  0.5000000000000000  0.5000000000000000  0.0023247087138363
  0.5000000000000000  0.5000000000000000  0.3309385907817995
  0.5000000000000000  0.5000000000000000  0.6667340689106090
  0.5000000000000000  0.0000000000000000  0.1666394750146377
  0.5000000000000000  0.0000000000000000  0.4996255490207877
  0.5000000000000000  0.0000000000000000  0.8337376979821386
  0.0000000000000000  0.0000000000000000  0.9979488502786584
  0.0000000000000000  0.0000000000000000  0.3353676955998214
  0.0000000000000000  0.0000000000000000  0.6666806416800833
 
  0.00000000E+00  0.00000000E+00  0.00000000E+00
  0.00000000E+00  0.00000000E+00  0.00000000E+00
  0.00000000E+00  0.00000000E+00  0.00000000E+00
  0.00000000E+00  0.00000000E+00  0.00000000E+00
  0.00000000E+00  0.00000000E+00  0.00000000E+00
  0.00000000E+00  0.00000000E+00  0.00000000E+00
  0.00000000E+00  0.00000000E+00  0.00000000E+00
  0.00000000E+00  0.00000000E+00  0.00000000E+00
  0.00000000E+00  0.00000000E+00  0.00000000E+00
  0.00000000E+00  0.00000000E+00  0.00000000E+00
  0.00000000E+00  0.00000000E+00  0.00000000E+00
  0.00000000E+00  0.00000000E+00  0.00000000E+00
