Fe9 Pt3                                 
   1.00000000000000     
     3.5915691902858979    0.0000000000000000    0.0000000000000000
     0.0000000000000000    3.5915691902858979    0.0000000000000000
    -0.0000000000000000   -0.0000000000000000   10.7757206822316878
  Fe              Pt            
     9     3
Direct
  0.0000000000000000  0.5000000000000000  0.1666242860807935
  0.0000000000000000  0.5000000000000000  0.5000000000000000
  0.0000000000000000  0.5000000000000000  0.8333757139192065
  0.5000000000000000  0.5000000000000000  0.0000000000000000
  0.5000000000000000  0.5000000000000000  0.3332630792976450
  0.5000000000000000  0.5000000000000000  0.6667369207023549
  0.5000000000000000  0.0000000000000000  0.1666242860807935
  0.5000000000000000  0.0000000000000000  0.5000000000000000
  0.5000000000000000  0.0000000000000000  0.8333757139192065
  0.0000000000000000  0.0000000000000000  0.0000000000000000
  0.0000000000000000  0.0000000000000000  0.3333118452768000
  0.0000000000000000  0.0000000000000000  0.6666881547232001
 
  0.00000000E+00  0.00000000E+00  0.00000000E+00
  0.00000000E+00  0.00000000E+00  0.00000000E+00
  0.00000000E+00  0.00000000E+00  0.00000000E+00
  0.00000000E+00  0.00000000E+00  0.00000000E+00
  0.00000000E+00  0.00000000E+00  0.00000000E+00
  0.00000000E+00  0.00000000E+00  0.00000000E+00
  0.00000000E+00  0.00000000E+00  0.00000000E+00
  0.00000000E+00  0.00000000E+00  0.00000000E+00
  0.00000000E+00  0.00000000E+00  0.00000000E+00
  0.00000000E+00  0.00000000E+00  0.00000000E+00
  0.00000000E+00  0.00000000E+00  0.00000000E+00
  0.00000000E+00  0.00000000E+00  0.00000000E+00
