Fe9 Pt3                                 
   1.00000000000000     
     3.5916084098858647    0.0000000000000000    0.0000000000000000
     0.0000000000000000    3.5916084098858647    0.0000000000000000
    -0.0000000000000000    0.0000000000000000   10.7754853463605063
  Fe              Pt            
     9     3
Direct
  0.0000000000000000  0.5000000000000000  0.1666100423481023
  0.0000000000000000  0.5000000000000000  0.5000000000000000
  0.0000000000000000  0.5000000000000000  0.8333899576518976
  0.5000000000000000  0.5000000000000000  0.0000000000000000
  0.5000000000000000  0.5000000000000000  0.3332507631305719
  0.5000000000000000  0.5000000000000000  0.6667492368694281
  0.5000000000000000  0.0000000000000000  0.1666100423481023
  0.5000000000000000  0.0000000000000000  0.5000000000000000
  0.5000000000000000  0.0000000000000000  0.8333899576518976
  0.0000000000000000  0.0000000000000000  0.0000000000000000
  0.0000000000000000  0.0000000000000000  0.3333023632664341
  0.0000000000000000  0.0000000000000000  0.6666976367335660
 
  0.00000000E+00  0.00000000E+00  0.00000000E+00
  0.00000000E+00  0.00000000E+00  0.00000000E+00
  0.00000000E+00  0.00000000E+00  0.00000000E+00
  0.00000000E+00  0.00000000E+00  0.00000000E+00
  0.00000000E+00  0.00000000E+00  0.00000000E+00
  0.00000000E+00  0.00000000E+00  0.00000000E+00
  0.00000000E+00  0.00000000E+00  0.00000000E+00
  0.00000000E+00  0.00000000E+00  0.00000000E+00
  0.00000000E+00  0.00000000E+00  0.00000000E+00
  0.00000000E+00  0.00000000E+00  0.00000000E+00
  0.00000000E+00  0.00000000E+00  0.00000000E+00
  0.00000000E+00  0.00000000E+00  0.00000000E+00
