Fe9 Pt3                                 
   1.00000000000000     
     3.5916084098858647    0.0000000000000000    0.0000000000000000
     0.0000000000000000    3.5916084098858647    0.0000000000000000
     0.0000000000000000    0.0000000000000000   10.7754853463605063
  Fe              Pt            
     9     3
Direct
  0.0000000000000000  0.5000000000000000  0.1666100423481041
  0.0000000000000000  0.5000000000000000  0.5000000000000000
  0.0000000000000000  0.5000000000000000  0.8333899576518959
  0.5000000000000000  0.5000000000000000  0.0000000000000000
  0.5000000000000000  0.5000000000000000  0.3332507631305717
  0.5000000000000000  0.5000000000000000  0.6667492368694283
  0.5000000000000000  0.0000000000000000  0.1666100423481041
  0.5000000000000000  0.0000000000000000  0.5000000000000000
  0.5000000000000000  0.0000000000000000  0.8333899576518959
  0.0000000000000000  0.0000000000000000  0.0000000000000000
  0.0000000000000000  0.0000000000000000  0.3333023632664336
  0.0000000000000000  0.0000000000000000  0.6666976367335664
 
  0.00000000E+00  0.00000000E+00  0.00000000E+00
  0.00000000E+00  0.00000000E+00  0.00000000E+00
  0.00000000E+00  0.00000000E+00  0.00000000E+00
  0.00000000E+00  0.00000000E+00  0.00000000E+00
  0.00000000E+00  0.00000000E+00  0.00000000E+00
  0.00000000E+00  0.00000000E+00  0.00000000E+00
  0.00000000E+00  0.00000000E+00  0.00000000E+00
  0.00000000E+00  0.00000000E+00  0.00000000E+00
  0.00000000E+00  0.00000000E+00  0.00000000E+00
  0.00000000E+00  0.00000000E+00  0.00000000E+00
  0.00000000E+00  0.00000000E+00  0.00000000E+00
  0.00000000E+00  0.00000000E+00  0.00000000E+00
