Fe9 Pt3                                 
   1.00000000000000     
     3.8132610426685565    0.0000000000000000    0.0000000000000000
     0.0000000000000000    3.8132610426685565   -0.0000000000000000
    -0.0000000000000000   -0.0000000000000000   11.6223414796777327
  Fe              Pt            
     9     3
Direct
  0.0000000000000000  0.5000000000000000  0.1665807613739583
  0.0000000000000000  0.5000000000000000  0.4994766792762710
  0.0000000000000000  0.5000000000000000  0.8316894042026162
  0.5000000000000000  0.5000000000000000  0.0078440524872117
  0.5000000000000000  0.5000000000000000  0.3435917614328700
  0.5000000000000000  0.5000000000000000  0.6628348175338293
  0.5000000000000000  0.0000000000000000  0.1665807613739583
  0.5000000000000000  1.0000000000000000  0.4994766792762710
  0.5000000000000000  0.0000000000000000  0.8316894042026162
  0.0000000000000000  0.0000000000000000  0.9966697597093779
  0.0000000000000000  0.0000000000000000  0.3281192890288854
  0.0000000000000000  0.0000000000000000  0.6654466301021275
 
  0.00000000E+00  0.00000000E+00  0.00000000E+00
  0.00000000E+00  0.00000000E+00  0.00000000E+00
  0.00000000E+00  0.00000000E+00  0.00000000E+00
  0.00000000E+00  0.00000000E+00  0.00000000E+00
  0.00000000E+00  0.00000000E+00  0.00000000E+00
  0.00000000E+00  0.00000000E+00  0.00000000E+00
  0.00000000E+00  0.00000000E+00  0.00000000E+00
  0.00000000E+00  0.00000000E+00  0.00000000E+00
  0.00000000E+00  0.00000000E+00  0.00000000E+00
  0.00000000E+00  0.00000000E+00  0.00000000E+00
  0.00000000E+00  0.00000000E+00  0.00000000E+00
  0.00000000E+00  0.00000000E+00  0.00000000E+00
