ALGO = Normal
EDIFF = 1e-06
EDIFFG = -0.01
ENCUT = 520
GGA = Pe
IBRION = -1
ISIF = 4
ISMEAR = -5
ISPIN = 2
KPAR = 4
LCHARG = True
LORBIT = 11
LREAL = False
LWAVE = False
MAGMOM = 1*-2.799 1*2.781 1*2.801 1*-2.814 1*2.775 1*2.894 1*-2.799 1*2.781 1*2.801 1*-0.046 1*0.035 1*0.275
NELM = 200
NSW = 0
PREC = Accurate
SIGMA = 0.2
