ALGO = All
EDIFF = 1e-06
EDIFFG = -0.01
ENCUT = 520
GGA = Pe
IBRION = 2
ISIF = 4
ISMEAR = 1
ISPIN = 2
KPAR = 4
LCHARG = True
LORBIT = 11
LREAL = False
LWAVE = False
MAGMOM = 1*-2.865 1*2.813 1*2.842 1*-2.87 1*2.805 1*2.919 1*-2.865 1*2.813 1*2.842 1*-0.052 1*0.023 1*0.275
NELM = 200
NSW = 100
PREC = Accurate
SIGMA = 0.2
