Fe9 Pt3                                 
   1.00000000000000     
     3.6544633735618279    0.0000000000000000    0.0000000000000000
     0.0000000000000000    3.6544633735618279    0.0000000000000000
     0.0000000000000000   -0.0000000000000000   11.0819066690245727
  Fe              Pt            
     9     3
Direct
  0.0000000000000000  0.5000000000000000  0.1666187487898572
  0.0000000000000000  0.5000000000000000  0.4991911760366700
  1.0000000000000000  0.5000000000000000  0.8342097721056968
  0.5000000000000000  0.5000000000000000  0.0042058006067448
  0.5000000000000000  0.5000000000000000  0.3358435694119780
  0.5000000000000000  0.5000000000000000  0.6645598657337022
  0.5000000000000000  0.0000000000000000  0.1666187487898572
  0.5000000000000000  0.0000000000000000  0.4991911760366700
  0.5000000000000000  0.0000000000000000  0.8342097721056968
  0.0000000000000000  0.0000000000000000  0.9987123000480737
  0.0000000000000000  0.0000000000000000  0.3299694570725794
  0.0000000000000000  0.0000000000000000  0.6666696132624884
 
  0.00000000E+00  0.00000000E+00  0.00000000E+00
  0.00000000E+00  0.00000000E+00  0.00000000E+00
  0.00000000E+00  0.00000000E+00  0.00000000E+00
  0.00000000E+00  0.00000000E+00  0.00000000E+00
  0.00000000E+00  0.00000000E+00  0.00000000E+00
  0.00000000E+00  0.00000000E+00  0.00000000E+00
  0.00000000E+00  0.00000000E+00  0.00000000E+00
  0.00000000E+00  0.00000000E+00  0.00000000E+00
  0.00000000E+00  0.00000000E+00  0.00000000E+00
  0.00000000E+00  0.00000000E+00  0.00000000E+00
  0.00000000E+00  0.00000000E+00  0.00000000E+00
  0.00000000E+00  0.00000000E+00  0.00000000E+00
