Fe9 Pt3                                 
   1.00000000000000     
     3.6544633735618279    0.0000000000000000    0.0000000000000000
     0.0000000000000000    3.6544633735618279    0.0000000000000000
     0.0000000000000000    0.0000000000000000   11.0819066690245727
  Fe              Pt            
     9     3
Direct
  0.0000000000000000  0.5000000000000000  0.1666187487898583
  0.0000000000000000  0.5000000000000000  0.4991911760366676
  0.0000000000000000  0.5000000000000000  0.8342097721056945
  0.5000000000000000  0.5000000000000000  0.0042058006067478
  0.5000000000000000  0.5000000000000000  0.3358435694119777
  0.5000000000000000  0.5000000000000000  0.6645598657337004
  0.5000000000000000  0.0000000000000000  0.1666187487898583
  0.5000000000000000  0.0000000000000000  0.4991911760366676
  0.5000000000000000  0.0000000000000000  0.8342097721056945
  0.0000000000000000  0.0000000000000000  0.9987123000480764
  0.0000000000000000  0.0000000000000000  0.3299694570725791
  0.0000000000000000  0.0000000000000000  0.6666696132624850
 
  0.00000000E+00  0.00000000E+00  0.00000000E+00
  0.00000000E+00  0.00000000E+00  0.00000000E+00
  0.00000000E+00  0.00000000E+00  0.00000000E+00
  0.00000000E+00  0.00000000E+00  0.00000000E+00
  0.00000000E+00  0.00000000E+00  0.00000000E+00
  0.00000000E+00  0.00000000E+00  0.00000000E+00
  0.00000000E+00  0.00000000E+00  0.00000000E+00
  0.00000000E+00  0.00000000E+00  0.00000000E+00
  0.00000000E+00  0.00000000E+00  0.00000000E+00
  0.00000000E+00  0.00000000E+00  0.00000000E+00
  0.00000000E+00  0.00000000E+00  0.00000000E+00
  0.00000000E+00  0.00000000E+00  0.00000000E+00
