ALGO = All
EDIFF = 1e-06
EDIFFG = -0.01
ENCUT = 520
GGA = Pe
IBRION = 2
ISIF = 4
ISMEAR = 1
ISPIN = 2
KPAR = 4
LCHARG = True
LORBIT = 11
LREAL = False
LWAVE = False
MAGMOM = 1*-2.321 1*2.504 1*2.437 1*-2.386 1*2.423 1*2.61 1*-2.321 1*2.504 1*2.437 1*-0.044 1*0.066 1*0.256
NELM = 200
NSW = 100
PREC = Accurate
SIGMA = 0.2
