ALGO = Normal
EDIFF = 1e-06
EDIFFG = -0.01
ENCUT = 520
GGA = Pe
IBRION = -1
ISIF = 4
ISMEAR = -5
ISPIN = 2
KPAR = 4
LCHARG = True
LORBIT = 11
LREAL = False
LWAVE = False
MAGMOM = 1*-2.321 1*2.505 1*2.438 1*-2.385 1*2.423 1*2.611 1*-2.321 1*2.505 1*2.438 1*-0.043 1*0.066 1*0.256
NELM = 200
NSW = 0
PREC = Accurate
SIGMA = 0.2
