ALGO = All
EDIFF = 1e-06
EDIFFG = -0.01
ENCUT = 520
GGA = Pe
IBRION = 2
ISIF = 4
ISMEAR = 1
ISPIN = 2
KPAR = 4
LCHARG = True
LORBIT = 11
LREAL = False
LWAVE = False
MAGMOM = 1*-2.402 1*2.545 1*2.498 1*-2.476 1*2.489 1*2.677 1*-2.402 1*2.545 1*2.498 1*-0.043 1*0.065 1*0.264
NELM = 200
NSW = 100
PREC = Accurate
SIGMA = 0.2
