Fe9 Pt3                                 
   1.00000000000000     
     3.6543214746532771    0.0000000000000000    0.0000000000000000
     0.0000000000000000    3.6543214746532771    0.0000000000000000
     0.0000000000000000   -0.0000000000000000   11.0827673163444960
  Fe              Pt            
     9     3
Direct
  1.0000000000000000  0.5000000000000000  0.1666441304223820
  1.0000000000000000  0.5000000000000000  0.4994874237765928
  1.0000000000000000  0.5000000000000000  0.8338684888222142
  0.5000000000000000  0.5000000000000000  0.0039198925316434
  0.5000000000000000  0.5000000000000000  0.3293955958754710
  0.5000000000000000  0.5000000000000000  0.6666900538077328
  0.5000000000000000  0.0000000000000000  0.1666441304223820
  0.5000000000000000  0.0000000000000000  0.4994874237765928
  0.5000000000000000  0.0000000000000000  0.8338684888222142
  1.0000000000000000  0.0000000000000000  0.9978293549888976
  1.0000000000000000  0.0000000000000000  0.3354800333666026
  1.0000000000000000  0.0000000000000000  0.6666849833872319
 
  0.00000000E+00  0.00000000E+00  0.00000000E+00
  0.00000000E+00  0.00000000E+00  0.00000000E+00
  0.00000000E+00  0.00000000E+00  0.00000000E+00
  0.00000000E+00  0.00000000E+00  0.00000000E+00
  0.00000000E+00  0.00000000E+00  0.00000000E+00
  0.00000000E+00  0.00000000E+00  0.00000000E+00
  0.00000000E+00  0.00000000E+00  0.00000000E+00
  0.00000000E+00  0.00000000E+00  0.00000000E+00
  0.00000000E+00  0.00000000E+00  0.00000000E+00
  0.00000000E+00  0.00000000E+00  0.00000000E+00
  0.00000000E+00  0.00000000E+00  0.00000000E+00
  0.00000000E+00  0.00000000E+00  0.00000000E+00
