Fe9 Pt3                                 
   1.00000000000000     
     3.6543368934231575    0.0000000000000000    0.0000000000000000
     0.0000000000000000    3.6543368934231575    0.0000000000000000
     0.0000000000000000   -0.0000000000000000   11.0826737933424475
  Fe              Pt            
     9     3
Direct
  1.0000000000000000  0.5000000000000000  0.1666146321742620
  1.0000000000000000  0.5000000000000000  0.4995215166432991
  1.0000000000000000  0.5000000000000000  0.8338588582039262
  0.5000000000000000  0.5000000000000000  0.0038957498053280
  0.5000000000000000  0.5000000000000000  0.3293996826021675
  0.5000000000000000  0.5000000000000000  0.6667177032202467
  0.5000000000000000  0.0000000000000000  0.1666146321742620
  0.5000000000000000  0.0000000000000000  0.4995215166432991
  0.5000000000000000  0.0000000000000000  0.8338588582039262
  1.0000000000000000  0.0000000000000000  0.9978082090063954
  1.0000000000000000  0.0000000000000000  0.3354588091639407
  1.0000000000000000  0.0000000000000000  0.6667298321589180
 
  0.00000000E+00  0.00000000E+00  0.00000000E+00
  0.00000000E+00  0.00000000E+00  0.00000000E+00
  0.00000000E+00  0.00000000E+00  0.00000000E+00
  0.00000000E+00  0.00000000E+00  0.00000000E+00
  0.00000000E+00  0.00000000E+00  0.00000000E+00
  0.00000000E+00  0.00000000E+00  0.00000000E+00
  0.00000000E+00  0.00000000E+00  0.00000000E+00
  0.00000000E+00  0.00000000E+00  0.00000000E+00
  0.00000000E+00  0.00000000E+00  0.00000000E+00
  0.00000000E+00  0.00000000E+00  0.00000000E+00
  0.00000000E+00  0.00000000E+00  0.00000000E+00
  0.00000000E+00  0.00000000E+00  0.00000000E+00
