Fe9 Pt3                                 
   1.00000000000000     
     3.7677535274894134   -0.0000000000000000    0.0000000000000000
     0.0000000000000000    3.7677535274894134   -0.0000000000000000
    -0.0000000000000000   -0.0000000000000000   11.4821346153231953
  Fe              Pt            
     9     3
Direct
  0.0000000000000000  0.5000000000000000  0.1667047463584785
  0.0000000000000000  0.5000000000000000  0.4993046479609822
  0.0000000000000000  0.5000000000000000  0.8325237029792870
  0.5000000000000000  0.5000000000000000  0.0064995884775232
  0.5000000000000000  0.5000000000000000  0.3410949903715411
  0.5000000000000000  0.5000000000000000  0.6633684151759960
  0.5000000000000000  0.0000000000000000  0.1667047463584785
  0.5000000000000000  0.0000000000000000  0.4993046479609822
  0.5000000000000000  0.0000000000000000  0.8325237029792870
  0.0000000000000000  0.0000000000000000  0.9974351221061410
  0.0000000000000000  0.0000000000000000  0.3286988315270181
  0.0000000000000000  0.0000000000000000  0.6658368577442566
 
  0.00000000E+00  0.00000000E+00  0.00000000E+00
  0.00000000E+00  0.00000000E+00  0.00000000E+00
  0.00000000E+00  0.00000000E+00  0.00000000E+00
  0.00000000E+00  0.00000000E+00  0.00000000E+00
  0.00000000E+00  0.00000000E+00  0.00000000E+00
  0.00000000E+00  0.00000000E+00  0.00000000E+00
  0.00000000E+00  0.00000000E+00  0.00000000E+00
  0.00000000E+00  0.00000000E+00  0.00000000E+00
  0.00000000E+00  0.00000000E+00  0.00000000E+00
  0.00000000E+00  0.00000000E+00  0.00000000E+00
  0.00000000E+00  0.00000000E+00  0.00000000E+00
  0.00000000E+00  0.00000000E+00  0.00000000E+00
