Fe9 Pt3                                 
   1.00000000000000     
     3.7671700799870043    0.0000000000000000    0.0000000000000000
     0.0000000000000000    3.7671700799870043    0.0000000000000000
     0.0000000000000000    0.0000000000000000   11.4856915248328182
  Fe              Pt            
     9     3
Direct
  0.0000000000000000  0.5000000000000000  0.1666374708377418
  0.0000000000000000  0.5000000000000000  0.4993217109485713
  0.0000000000000000  0.5000000000000000  0.8325252291308658
  0.5000000000000000  0.5000000000000000  0.0065092172349281
  0.5000000000000000  0.5000000000000000  0.3410954753518993
  0.5000000000000000  0.5000000000000000  0.6634005892096795
  0.5000000000000000  0.0000000000000000  0.1666374708377418
  0.5000000000000000  0.0000000000000000  0.4993217109485713
  0.5000000000000000  0.0000000000000000  0.8325252291308658
  0.0000000000000000  0.0000000000000000  0.9974461902553031
  0.0000000000000000  0.0000000000000000  0.3287845147352471
  0.0000000000000000  0.0000000000000000  0.6657951913785567
 
  0.00000000E+00  0.00000000E+00  0.00000000E+00
  0.00000000E+00  0.00000000E+00  0.00000000E+00
  0.00000000E+00  0.00000000E+00  0.00000000E+00
  0.00000000E+00  0.00000000E+00  0.00000000E+00
  0.00000000E+00  0.00000000E+00  0.00000000E+00
  0.00000000E+00  0.00000000E+00  0.00000000E+00
  0.00000000E+00  0.00000000E+00  0.00000000E+00
  0.00000000E+00  0.00000000E+00  0.00000000E+00
  0.00000000E+00  0.00000000E+00  0.00000000E+00
  0.00000000E+00  0.00000000E+00  0.00000000E+00
  0.00000000E+00  0.00000000E+00  0.00000000E+00
  0.00000000E+00  0.00000000E+00  0.00000000E+00
