ALGO = All
EDIFF = 1e-06
EDIFFG = -0.01
ENCUT = 520
GGA = Pe
IBRION = 2
ISIF = 4
ISMEAR = 1
ISPIN = 2
KPAR = 4
LCHARG = True
LORBIT = 11
LREAL = False
LWAVE = False
MAGMOM = 1*-2.689 1*2.714 1*2.717 1*-2.723 1*2.693 1*2.84 1*-2.689 1*2.714 1*2.717 1*-0.047 1*0.046 1*0.275
NELM = 200
NSW = 100
PREC = Accurate
SIGMA = 0.2
