Fe9 Pt3                                 
   1.00000000000000     
     3.6068932873876585    0.0000000000000000    0.0000000000000000
     0.0000000000000000    3.6068932873876585   -0.0000000000000000
     0.0000000000000000    0.0000000000000000   10.9149501661990822
  Fe              Pt            
     9     3
Direct
  0.0000000000000000  0.5000000000000000  0.1664697410171358
  0.0000000000000000  0.5000000000000000  0.4992632232149586
  0.0000000000000000  0.5000000000000000  0.8346956780238177
  0.5000000000000000  0.5000000000000000  0.0034712038662816
  0.5000000000000000  0.5000000000000000  0.3339277022395736
  0.5000000000000000  0.5000000000000000  0.6651440967139133
  0.5000000000000000  0.0000000000000000  0.1664697410171358
  0.5000000000000000  0.0000000000000000  0.4992632232149586
  0.5000000000000000  0.0000000000000000  0.8346956780238177
  0.0000000000000000  0.0000000000000000  0.9991253687842018
  0.0000000000000000  0.0000000000000000  0.3303712944469108
  0.0000000000000000  1.0000000000000000  0.6671030494373162
 
  0.00000000E+00  0.00000000E+00  0.00000000E+00
  0.00000000E+00  0.00000000E+00  0.00000000E+00
  0.00000000E+00  0.00000000E+00  0.00000000E+00
  0.00000000E+00  0.00000000E+00  0.00000000E+00
  0.00000000E+00  0.00000000E+00  0.00000000E+00
  0.00000000E+00  0.00000000E+00  0.00000000E+00
  0.00000000E+00  0.00000000E+00  0.00000000E+00
  0.00000000E+00  0.00000000E+00  0.00000000E+00
  0.00000000E+00  0.00000000E+00  0.00000000E+00
  0.00000000E+00  0.00000000E+00  0.00000000E+00
  0.00000000E+00  0.00000000E+00  0.00000000E+00
  0.00000000E+00  0.00000000E+00  0.00000000E+00
