Fe9 Pt3                                 
   1.00000000000000     
     3.6068932873876585    0.0000000000000000    0.0000000000000000
     0.0000000000000000    3.6068932873876585    0.0000000000000000
     0.0000000000000000    0.0000000000000000   10.9149501661990822
  Fe              Pt            
     9     3
Direct
  0.0000000000000000  0.5000000000000000  0.1664697410171385
  0.0000000000000000  0.5000000000000000  0.4992632232149603
  0.0000000000000000  0.5000000000000000  0.8346956780238202
  0.5000000000000000  0.5000000000000000  0.0034712038662832
  0.5000000000000000  0.5000000000000000  0.3339277022395706
  0.5000000000000000  0.5000000000000000  0.6651440967139166
  0.5000000000000000  0.0000000000000000  0.1664697410171385
  0.5000000000000000  0.0000000000000000  0.4992632232149603
  0.5000000000000000  0.0000000000000000  0.8346956780238202
  0.0000000000000000  0.0000000000000000  0.9991253687841990
  0.0000000000000000  0.0000000000000000  0.3303712944469126
  0.0000000000000000  0.0000000000000000  0.6671030494373156
 
  0.00000000E+00  0.00000000E+00  0.00000000E+00
  0.00000000E+00  0.00000000E+00  0.00000000E+00
  0.00000000E+00  0.00000000E+00  0.00000000E+00
  0.00000000E+00  0.00000000E+00  0.00000000E+00
  0.00000000E+00  0.00000000E+00  0.00000000E+00
  0.00000000E+00  0.00000000E+00  0.00000000E+00
  0.00000000E+00  0.00000000E+00  0.00000000E+00
  0.00000000E+00  0.00000000E+00  0.00000000E+00
  0.00000000E+00  0.00000000E+00  0.00000000E+00
  0.00000000E+00  0.00000000E+00  0.00000000E+00
  0.00000000E+00  0.00000000E+00  0.00000000E+00
  0.00000000E+00  0.00000000E+00  0.00000000E+00
