ALGO = All
EDIFF = 1e-06
EDIFFG = -0.01
ENCUT = 520
GGA = Pe
IBRION = 2
ISIF = 4
ISMEAR = 1
ISPIN = 2
KPAR = 4
LCHARG = True
LORBIT = 11
LREAL = False
LWAVE = False
MAGMOM = 1*-2.221 1*2.449 1*2.362 1*-2.312 1*2.362 1*2.534 1*-2.221 1*2.449 1*2.362 1*-0.043 1*0.072 1*0.243
NELM = 200
NSW = 100
PREC = Accurate
SIGMA = 0.2
