ALGO = Normal
EDIFF = 1e-06
EDIFFG = -0.01
ENCUT = 520
GGA = Pe
IBRION = -1
ISIF = 4
ISMEAR = -5
ISPIN = 2
KPAR = 4
LCHARG = True
LORBIT = 11
LREAL = False
LWAVE = False
MAGMOM = 1*-2.129 1*2.391 1*2.288 1*-2.171 1*2.266 1*2.453 1*-2.129 1*2.391 1*2.288 1*-0.038 1*0.066 1*0.233
NELM = 200
NSW = 0
PREC = Accurate
SIGMA = 0.2
