Fe9 Pt3                                 
   1.00000000000000     
     3.7001485683581516    0.0000000000000000    0.0000000000000000
     0.0000000000000000    3.7001485683581516    0.0000000000000000
     0.0000000000000000    0.0000000000000000   11.2481835962653367
  Fe              Pt            
     9     3
Direct
  0.0000000000000000  0.5000000000000000  0.1667133392062052
  0.0000000000000000  0.5000000000000000  0.4991770452506181
  0.0000000000000000  0.5000000000000000  0.8335606373056942
  0.5000000000000000  0.5000000000000000  0.0050529103857111
  0.5000000000000000  0.5000000000000000  0.3378329465525561
  0.5000000000000000  0.5000000000000000  0.6639800896853999
  0.5000000000000000  0.0000000000000000  0.1667133392062052
  0.5000000000000000  0.0000000000000000  0.4991770452506181
  0.5000000000000000  0.0000000000000000  0.8335606373056942
  0.0000000000000000  0.0000000000000000  0.9984065466584773
  0.0000000000000000  1.0000000000000000  0.3294737308731691
  0.0000000000000000  0.0000000000000000  0.6663517323196305
 
  0.00000000E+00  0.00000000E+00  0.00000000E+00
  0.00000000E+00  0.00000000E+00  0.00000000E+00
  0.00000000E+00  0.00000000E+00  0.00000000E+00
  0.00000000E+00  0.00000000E+00  0.00000000E+00
  0.00000000E+00  0.00000000E+00  0.00000000E+00
  0.00000000E+00  0.00000000E+00  0.00000000E+00
  0.00000000E+00  0.00000000E+00  0.00000000E+00
  0.00000000E+00  0.00000000E+00  0.00000000E+00
  0.00000000E+00  0.00000000E+00  0.00000000E+00
  0.00000000E+00  0.00000000E+00  0.00000000E+00
  0.00000000E+00  0.00000000E+00  0.00000000E+00
  0.00000000E+00  0.00000000E+00  0.00000000E+00
