Fe9 Pt3                                 
   1.00000000000000     
     3.7000991012125293    0.0000000000000000    0.0000000000000000
     0.0000000000000000    3.7000991012125293    0.0000000000000000
     0.0000000000000000    0.0000000000000000   11.2484843553748242
  Fe              Pt            
     9     3
Direct
  0.0000000000000000  0.5000000000000000  0.1667003025324760
  0.0000000000000000  0.5000000000000000  0.4991694526103174
  0.0000000000000000  0.5000000000000000  0.8335915396631961
  0.5000000000000000  0.5000000000000000  0.0050489306605144
  0.5000000000000000  0.5000000000000000  0.3378348719069635
  0.5000000000000000  0.5000000000000000  0.6639916073488550
  0.5000000000000000  0.0000000000000000  0.1667003025324760
  0.5000000000000000  0.0000000000000000  0.4991694526103174
  0.5000000000000000  0.0000000000000000  0.8335915396631961
  0.0000000000000000  0.0000000000000000  0.9983658608472368
  0.0000000000000000  0.0000000000000000  0.3295177286409512
  0.0000000000000000  0.0000000000000000  0.6663184109834930
 
  0.00000000E+00  0.00000000E+00  0.00000000E+00
  0.00000000E+00  0.00000000E+00  0.00000000E+00
  0.00000000E+00  0.00000000E+00  0.00000000E+00
  0.00000000E+00  0.00000000E+00  0.00000000E+00
  0.00000000E+00  0.00000000E+00  0.00000000E+00
  0.00000000E+00  0.00000000E+00  0.00000000E+00
  0.00000000E+00  0.00000000E+00  0.00000000E+00
  0.00000000E+00  0.00000000E+00  0.00000000E+00
  0.00000000E+00  0.00000000E+00  0.00000000E+00
  0.00000000E+00  0.00000000E+00  0.00000000E+00
  0.00000000E+00  0.00000000E+00  0.00000000E+00
  0.00000000E+00  0.00000000E+00  0.00000000E+00
