ALGO = All
EDIFF = 1e-06
EDIFFG = -0.01
ENCUT = 520
GGA = Pe
IBRION = 2
ISIF = 4
ISMEAR = 1
ISPIN = 2
KPAR = 4
LCHARG = True
LORBIT = 11
LREAL = False
LWAVE = False
MAGMOM = 1*-2.558 1*2.637 1*2.614 1*-2.613 1*2.587 1*2.773 1*-2.558 1*2.637 1*2.614 1*-0.045 1*0.054 1*0.273
NELM = 200
NSW = 100
PREC = Accurate
SIGMA = 0.2
