ALGO = All
EDIFF = 1e-06
EDIFFG = -0.01
ENCUT = 520
GGA = Pe
IBRION = 2
ISIF = 4
ISMEAR = 1
ISPIN = 2
KPAR = 4
LCHARG = True
LORBIT = 11
LREAL = False
LWAVE = False
MAGMOM = 1*-2.481 1*2.6 1*2.567 1*-2.545 1*2.547 1*2.732 1*-2.481 1*2.6 1*2.567 1*-0.046 1*0.061 1*0.272
NELM = 200
NSW = 100
PREC = Accurate
SIGMA = 0.2
