Fe9 Pt3                                 
   1.00000000000000     
     3.7153796664089862    0.0000000000000000    0.0000000000000000
     0.0000000000000000    3.7153796664089862    0.0000000000000000
    -0.0000000000000000    0.0000000000000000   11.1561493831984571
  Fe              Pt            
     9     3
Direct
  0.0000000000000000  0.5000000000000000  0.1666823374405871
  0.0000000000000000  0.5000000000000000  0.5000000000000000
  0.0000000000000000  0.5000000000000000  0.8333176625594130
  0.5000000000000000  0.5000000000000000  1.0000000000000000
  0.5000000000000000  0.5000000000000000  0.3332591919026004
  0.5000000000000000  0.5000000000000000  0.6667408080973996
  0.5000000000000000  0.0000000000000000  0.1666823374405871
  0.5000000000000000  0.0000000000000000  0.5000000000000000
  0.5000000000000000  0.0000000000000000  0.8333176625594130
  0.0000000000000000  0.0000000000000000  1.0000000000000000
  0.0000000000000000  0.0000000000000000  0.3333247758777306
  0.0000000000000000  0.0000000000000000  0.6666752241222693
 
  0.00000000E+00  0.00000000E+00  0.00000000E+00
  0.00000000E+00  0.00000000E+00  0.00000000E+00
  0.00000000E+00  0.00000000E+00  0.00000000E+00
  0.00000000E+00  0.00000000E+00  0.00000000E+00
  0.00000000E+00  0.00000000E+00  0.00000000E+00
  0.00000000E+00  0.00000000E+00  0.00000000E+00
  0.00000000E+00  0.00000000E+00  0.00000000E+00
  0.00000000E+00  0.00000000E+00  0.00000000E+00
  0.00000000E+00  0.00000000E+00  0.00000000E+00
  0.00000000E+00  0.00000000E+00  0.00000000E+00
  0.00000000E+00  0.00000000E+00  0.00000000E+00
  0.00000000E+00  0.00000000E+00  0.00000000E+00
