Fe9 Pt3                                 
   1.00000000000000     
     3.7153634899531514    0.0000000000000000   -0.0000000000000000
     0.0000000000000000    3.7153634899531514    0.0000000000000000
     0.0000000000000000    0.0000000000000000   11.1562465297366842
  Fe              Pt            
     9     3
Direct
  1.0000000000000000  0.5000000000000000  0.1666112042038018
  1.0000000000000000  0.5000000000000000  0.5000000000000000
  1.0000000000000000  0.5000000000000000  0.8333887957961982
  0.5000000000000000  0.5000000000000000  0.0000000000000000
  0.5000000000000000  0.5000000000000000  0.3332614100733522
  0.5000000000000000  0.5000000000000000  0.6667385899266478
  0.5000000000000000  1.0000000000000000  0.1666112042038018
  0.5000000000000000  1.0000000000000000  0.5000000000000000
  0.5000000000000000  1.0000000000000000  0.8333887957961982
  1.0000000000000000  1.0000000000000000  0.0000000000000000
  1.0000000000000000  1.0000000000000000  0.3333245045106243
  1.0000000000000000  1.0000000000000000  0.6666754954893758
 
  0.00000000E+00  0.00000000E+00  0.00000000E+00
  0.00000000E+00  0.00000000E+00  0.00000000E+00
  0.00000000E+00  0.00000000E+00  0.00000000E+00
  0.00000000E+00  0.00000000E+00  0.00000000E+00
  0.00000000E+00  0.00000000E+00  0.00000000E+00
  0.00000000E+00  0.00000000E+00  0.00000000E+00
  0.00000000E+00  0.00000000E+00  0.00000000E+00
  0.00000000E+00  0.00000000E+00  0.00000000E+00
  0.00000000E+00  0.00000000E+00  0.00000000E+00
  0.00000000E+00  0.00000000E+00  0.00000000E+00
  0.00000000E+00  0.00000000E+00  0.00000000E+00
  0.00000000E+00  0.00000000E+00  0.00000000E+00
