ALGO = All
EDIFF = 1e-06
EDIFFG = -0.01
ENCUT = 520
GGA = Pe
IBRION = 2
ISIF = 4
ISMEAR = 1
ISPIN = 2
KPAR = 4
LCHARG = True
LORBIT = 11
LREAL = False
LWAVE = False
MAGMOM = 1*2.709 1*2.71 1*2.709 1*2.71 3*2.709 1*2.71 1*2.709 3*0.308
NELM = 200
NSW = 100
PREC = Accurate
SIGMA = 0.2
