ALGO = All
EDIFF = 1e-06
EDIFFG = -0.01
ENCUT = 520
GGA = Pe
IBRION = 2
ISIF = 4
ISMEAR = 1
ISPIN = 2
KPAR = 4
LCHARG = True
LORBIT = 11
LREAL = False
LWAVE = False
MAGMOM = 1*2.732 1*2.733 1*2.732 1*2.737 2*2.735 1*2.732 1*2.733 1*2.732 3*0.305
NELM = 200
NSW = 100
PREC = Accurate
SIGMA = 0.2
