Fe9 Pt3                                 
   1.00000000000000     
     3.6308983861901982    0.0000000000000000    0.0000000000000000
     0.0000000000000000    3.6308983861901982    0.0000000000000000
     0.0000000000000000    0.0000000000000000   10.9986608941317616
  Fe              Pt            
     9     3
Direct
  0.0000000000000000  0.5000000000000000  0.1665156393953851
  0.0000000000000000  0.5000000000000000  0.4991814547757443
  0.0000000000000000  0.5000000000000000  0.8344358294334526
  0.5000000000000000  0.5000000000000000  0.0038583896877640
  0.5000000000000000  0.5000000000000000  0.3350772195663509
  0.5000000000000000  0.5000000000000000  0.6648404799258074
  0.5000000000000000  0.0000000000000000  0.1665156393953851
  0.5000000000000000  0.0000000000000000  0.4991814547757443
  0.5000000000000000  0.0000000000000000  0.8344358294334526
  0.0000000000000000  0.0000000000000000  0.9989008089841960
  0.0000000000000000  0.0000000000000000  0.3301591917074589
  0.0000000000000000  0.0000000000000000  0.6668980629192802
 
  0.00000000E+00  0.00000000E+00  0.00000000E+00
  0.00000000E+00  0.00000000E+00  0.00000000E+00
  0.00000000E+00  0.00000000E+00  0.00000000E+00
  0.00000000E+00  0.00000000E+00  0.00000000E+00
  0.00000000E+00  0.00000000E+00  0.00000000E+00
  0.00000000E+00  0.00000000E+00  0.00000000E+00
  0.00000000E+00  0.00000000E+00  0.00000000E+00
  0.00000000E+00  0.00000000E+00  0.00000000E+00
  0.00000000E+00  0.00000000E+00  0.00000000E+00
  0.00000000E+00  0.00000000E+00  0.00000000E+00
  0.00000000E+00  0.00000000E+00  0.00000000E+00
  0.00000000E+00  0.00000000E+00  0.00000000E+00
