Fe9 Pt3                                 
   1.00000000000000     
     3.6308983861901982    0.0000000000000000    0.0000000000000000
     0.0000000000000000    3.6308983861901982   -0.0000000000000000
     0.0000000000000000    0.0000000000000000   10.9986608941317616
  Fe              Pt            
     9     3
Direct
  0.0000000000000000  0.5000000000000000  0.1665156393953832
  0.0000000000000000  0.5000000000000000  0.4991814547757408
  0.0000000000000000  0.5000000000000000  0.8344358294334497
  0.5000000000000000  0.5000000000000000  0.0038583896877625
  0.5000000000000000  0.5000000000000000  0.3350772195663511
  0.5000000000000000  0.5000000000000000  0.6648404799258091
  0.5000000000000000  1.0000000000000000  0.1665156393953832
  0.5000000000000000  0.0000000000000000  0.4991814547757408
  0.5000000000000000  0.0000000000000000  0.8344358294334497
  0.0000000000000000  1.0000000000000000  0.9989008089841925
  0.0000000000000000  1.0000000000000000  0.3301591917074612
  0.0000000000000000  0.0000000000000000  0.6668980629192828
 
  0.00000000E+00  0.00000000E+00  0.00000000E+00
  0.00000000E+00  0.00000000E+00  0.00000000E+00
  0.00000000E+00  0.00000000E+00  0.00000000E+00
  0.00000000E+00  0.00000000E+00  0.00000000E+00
  0.00000000E+00  0.00000000E+00  0.00000000E+00
  0.00000000E+00  0.00000000E+00  0.00000000E+00
  0.00000000E+00  0.00000000E+00  0.00000000E+00
  0.00000000E+00  0.00000000E+00  0.00000000E+00
  0.00000000E+00  0.00000000E+00  0.00000000E+00
  0.00000000E+00  0.00000000E+00  0.00000000E+00
  0.00000000E+00  0.00000000E+00  0.00000000E+00
  0.00000000E+00  0.00000000E+00  0.00000000E+00
