Fe9 Pt3                                 
   1.00000000000000     
     3.6314295425150807    0.0000000000000000    0.0000000000000000
     0.0000000000000000    3.6314295425150807   -0.0000000000000000
     0.0000000000000000    0.0000000000000000   10.9954436591636284
  Fe              Pt            
     9     3
Direct
  0.0000000000000000  0.5000000000000000  0.1665908775636485
  0.0000000000000000  0.5000000000000000  0.4991811218292945
  0.0000000000000000  0.5000000000000000  0.8344026706033567
  0.5000000000000000  0.5000000000000000  0.0040149660501406
  0.5000000000000000  0.5000000000000000  0.3352057313592607
  0.5000000000000000  0.5000000000000000  0.6645959647600900
  0.5000000000000000  0.0000000000000000  0.1665908775636485
  0.5000000000000000  0.0000000000000000  0.4991811218292945
  0.5000000000000000  0.0000000000000000  0.8344026706033567
  0.0000000000000000  0.0000000000000000  0.9989324473195875
  0.0000000000000000  0.0000000000000000  0.3301164963707039
  0.0000000000000000  0.0000000000000000  0.6667850541476250
 
  0.00000000E+00  0.00000000E+00  0.00000000E+00
  0.00000000E+00  0.00000000E+00  0.00000000E+00
  0.00000000E+00  0.00000000E+00  0.00000000E+00
  0.00000000E+00  0.00000000E+00  0.00000000E+00
  0.00000000E+00  0.00000000E+00  0.00000000E+00
  0.00000000E+00  0.00000000E+00  0.00000000E+00
  0.00000000E+00  0.00000000E+00  0.00000000E+00
  0.00000000E+00  0.00000000E+00  0.00000000E+00
  0.00000000E+00  0.00000000E+00  0.00000000E+00
  0.00000000E+00  0.00000000E+00  0.00000000E+00
  0.00000000E+00  0.00000000E+00  0.00000000E+00
  0.00000000E+00  0.00000000E+00  0.00000000E+00
