ALGO = All
EDIFF = 1e-06
EDIFFG = -0.01
ENCUT = 520
GGA = Pe
IBRION = 2
ISIF = 4
ISMEAR = 1
ISPIN = 2
KPAR = 4
LCHARG = True
LORBIT = 11
LREAL = False
LWAVE = False
MAGMOM = 1*-2.232 1*2.447 1*2.369 1*-2.287 1*2.35 1*2.535 1*-2.232 1*2.447 1*2.369 1*-0.041 1*0.066 1*0.245
NELM = 200
NSW = 100
PREC = Accurate
SIGMA = 0.2
