ALGO = All
EDIFF = 1e-06
EDIFFG = -0.01
ENCUT = 520
GGA = Pe
IBRION = 2
ISIF = 4
ISMEAR = 1
ISPIN = 2
KPAR = 4
LCHARG = True
LORBIT = 11
LREAL = False
LWAVE = False
MAGMOM = 1*-2.313 1*2.498 1*2.431 1*-2.403 1*2.431 1*2.611 1*-2.313 1*2.498 1*2.431 1*-0.044 1*0.069 1*0.254
NELM = 200
NSW = 100
PREC = Accurate
SIGMA = 0.2
