ALGO = Normal
EDIFF = 1e-06
EDIFFG = -0.01
ENCUT = 520
GGA = Pe
IBRION = -1
ISIF = 4
ISMEAR = -5
ISPIN = 2
KPAR = 4
LCHARG = True
LORBIT = 11
LREAL = False
LWAVE = False
MAGMOM = 1*-2.233 1*2.45 1*2.366 1*-2.286 1*2.349 1*2.535 1*-2.233 1*2.45 1*2.366 1*-0.041 1*0.067 1*0.245
NELM = 200
NSW = 0
PREC = Accurate
SIGMA = 0.2
