Fe9 Pt3                                 
   1.00000000000000     
     3.7221041161334352    0.0000000000000000    0.0000000000000000
     0.0000000000000000    3.7221041161334352    0.0000000000000000
     0.0000000000000000    0.0000000000000000   11.3324188541583677
  Fe              Pt            
     9     3
Direct
  0.0000000000000000  0.5000000000000000  0.1667123174247962
  0.0000000000000000  0.5000000000000000  0.4991731160268671
  0.0000000000000000  0.5000000000000000  0.8333350815812608
  0.5000000000000000  0.5000000000000000  0.0054007060923027
  0.5000000000000000  0.5000000000000000  0.3385179642012517
  0.5000000000000000  0.5000000000000000  0.6638736458559009
  0.5000000000000000  0.0000000000000000  0.1667123174247962
  0.5000000000000000  0.0000000000000000  0.4991731160268671
  0.5000000000000000  0.0000000000000000  0.8333350815812608
  0.0000000000000000  0.0000000000000000  0.9982217441920582
  0.0000000000000000  0.0000000000000000  0.3293664864308212
  0.0000000000000000  0.0000000000000000  0.6661784231617958
 
  0.00000000E+00  0.00000000E+00  0.00000000E+00
  0.00000000E+00  0.00000000E+00  0.00000000E+00
  0.00000000E+00  0.00000000E+00  0.00000000E+00
  0.00000000E+00  0.00000000E+00  0.00000000E+00
  0.00000000E+00  0.00000000E+00  0.00000000E+00
  0.00000000E+00  0.00000000E+00  0.00000000E+00
  0.00000000E+00  0.00000000E+00  0.00000000E+00
  0.00000000E+00  0.00000000E+00  0.00000000E+00
  0.00000000E+00  0.00000000E+00  0.00000000E+00
  0.00000000E+00  0.00000000E+00  0.00000000E+00
  0.00000000E+00  0.00000000E+00  0.00000000E+00
  0.00000000E+00  0.00000000E+00  0.00000000E+00
