Fe9 Pt3                                 
   1.00000000000000     
     3.7221041161334352    0.0000000000000000    0.0000000000000000
     0.0000000000000000    3.7221041161334352    0.0000000000000000
     0.0000000000000000    0.0000000000000000   11.3324188541583677
  Fe              Pt            
     9     3
Direct
  0.0000000000000000  0.5000000000000000  0.1667123174247965
  0.0000000000000000  0.5000000000000000  0.4991731160268658
  0.0000000000000000  0.5000000000000000  0.8333350815812581
  0.5000000000000000  0.5000000000000000  0.0054007060923019
  0.5000000000000000  0.5000000000000000  0.3385179642012524
  0.5000000000000000  0.5000000000000000  0.6638736458559020
  0.5000000000000000  0.0000000000000000  0.1667123174247965
  0.5000000000000000  0.0000000000000000  0.4991731160268658
  0.5000000000000000  0.0000000000000000  0.8333350815812581
  0.0000000000000000  0.0000000000000000  0.9982217441920550
  0.0000000000000000  0.0000000000000000  0.3293664864308231
  0.0000000000000000  0.0000000000000000  0.6661784231617963
 
  0.00000000E+00  0.00000000E+00  0.00000000E+00
  0.00000000E+00  0.00000000E+00  0.00000000E+00
  0.00000000E+00  0.00000000E+00  0.00000000E+00
  0.00000000E+00  0.00000000E+00  0.00000000E+00
  0.00000000E+00  0.00000000E+00  0.00000000E+00
  0.00000000E+00  0.00000000E+00  0.00000000E+00
  0.00000000E+00  0.00000000E+00  0.00000000E+00
  0.00000000E+00  0.00000000E+00  0.00000000E+00
  0.00000000E+00  0.00000000E+00  0.00000000E+00
  0.00000000E+00  0.00000000E+00  0.00000000E+00
  0.00000000E+00  0.00000000E+00  0.00000000E+00
  0.00000000E+00  0.00000000E+00  0.00000000E+00
