ALGO = Normal
EDIFF = 1e-06
EDIFFG = -0.01
ENCUT = 520
GGA = Pe
IBRION = -1
ISIF = 4
ISMEAR = -5
ISPIN = 2
KPAR = 4
LCHARG = True
LORBIT = 11
LREAL = False
LWAVE = False
MAGMOM = 1*-2.552 1*2.643 1*2.621 1*-2.609 1*2.599 1*2.776 1*-2.552 1*2.643 1*2.621 1*-0.046 1*0.058 1*0.275
NELM = 200
NSW = 0
PREC = Accurate
SIGMA = 0.2
