Fe9 Pt3                                 
   1.00000000000000     
     3.7863859730103764    0.0000000000000000    0.0000000000000000
     0.0000000000000000    3.7863859730103764    0.0000000000000000
    -0.0000000000000000    0.0000000000000000   11.3694076723266395
  Fe              Pt            
     9     3
Direct
  0.0000000000000000  0.5000000000000000  0.1665776749605263
  0.0000000000000000  0.5000000000000000  0.5000000000000000
  0.0000000000000000  0.5000000000000000  0.8334223250394737
  0.5000000000000000  0.5000000000000000  0.0000000000000000
  0.5000000000000000  0.5000000000000000  0.3332746898433481
  0.5000000000000000  0.5000000000000000  0.6667253101566519
  0.5000000000000000  0.0000000000000000  0.1665776749605263
  0.5000000000000000  0.0000000000000000  0.5000000000000000
  0.5000000000000000  0.0000000000000000  0.8334223250394737
  0.0000000000000000  0.0000000000000000  0.0000000000000000
  0.0000000000000000  0.0000000000000000  0.3332756777875613
  0.0000000000000000  0.0000000000000000  0.6667243222124388
 
  0.00000000E+00  0.00000000E+00  0.00000000E+00
  0.00000000E+00  0.00000000E+00  0.00000000E+00
  0.00000000E+00  0.00000000E+00  0.00000000E+00
  0.00000000E+00  0.00000000E+00  0.00000000E+00
  0.00000000E+00  0.00000000E+00  0.00000000E+00
  0.00000000E+00  0.00000000E+00  0.00000000E+00
  0.00000000E+00  0.00000000E+00  0.00000000E+00
  0.00000000E+00  0.00000000E+00  0.00000000E+00
  0.00000000E+00  0.00000000E+00  0.00000000E+00
  0.00000000E+00  0.00000000E+00  0.00000000E+00
  0.00000000E+00  0.00000000E+00  0.00000000E+00
  0.00000000E+00  0.00000000E+00  0.00000000E+00
