Fe9 Pt3                                 
   1.00000000000000     
     3.7862382688757483    0.0000000000000000    0.0000000000000000
     0.0000000000000000    3.7862382688757483    0.0000000000000000
    -0.0000000000000000   -0.0000000000000000   11.3702947487110535
  Fe              Pt            
     9     3
Direct
  1.0000000000000000  0.5000000000000000  0.1666183982681965
  0.0000000000000000  0.5000000000000000  0.5000000000000000
  0.0000000000000000  0.5000000000000000  0.8333816017318035
  0.5000000000000000  0.5000000000000000  0.0000000000000000
  0.5000000000000000  0.5000000000000000  0.3333025278857297
  0.5000000000000000  0.5000000000000000  0.6666974721142703
  0.5000000000000000  0.0000000000000000  0.1666183982681965
  0.5000000000000000  0.0000000000000000  0.5000000000000000
  0.5000000000000000  0.0000000000000000  0.8333816017318035
  0.0000000000000000  0.0000000000000000  0.0000000000000000
  1.0000000000000000  0.0000000000000000  0.3332963088553111
  0.0000000000000000  0.0000000000000000  0.6667036911446890
 
  0.00000000E+00  0.00000000E+00  0.00000000E+00
  0.00000000E+00  0.00000000E+00  0.00000000E+00
  0.00000000E+00  0.00000000E+00  0.00000000E+00
  0.00000000E+00  0.00000000E+00  0.00000000E+00
  0.00000000E+00  0.00000000E+00  0.00000000E+00
  0.00000000E+00  0.00000000E+00  0.00000000E+00
  0.00000000E+00  0.00000000E+00  0.00000000E+00
  0.00000000E+00  0.00000000E+00  0.00000000E+00
  0.00000000E+00  0.00000000E+00  0.00000000E+00
  0.00000000E+00  0.00000000E+00  0.00000000E+00
  0.00000000E+00  0.00000000E+00  0.00000000E+00
  0.00000000E+00  0.00000000E+00  0.00000000E+00
