Fe9 Pt3                                 
   1.00000000000000     
     3.7862382688757483    0.0000000000000000    0.0000000000000000
     0.0000000000000000    3.7862382688757483    0.0000000000000000
     0.0000000000000000    0.0000000000000000   11.3702947487110535
  Fe              Pt            
     9     3
Direct
  0.0000000000000000  0.5000000000000000  0.1666183982681986
  0.0000000000000000  0.5000000000000000  0.5000000000000000
  0.0000000000000000  0.5000000000000000  0.8333816017318014
  0.5000000000000000  0.5000000000000000  0.0000000000000000
  0.5000000000000000  0.5000000000000000  0.3333025278857278
  0.5000000000000000  0.5000000000000000  0.6666974721142722
  0.5000000000000000  0.0000000000000000  0.1666183982681986
  0.5000000000000000  0.0000000000000000  0.5000000000000000
  0.5000000000000000  0.0000000000000000  0.8333816017318014
  0.0000000000000000  0.0000000000000000  0.0000000000000000
  0.0000000000000000  0.0000000000000000  0.3332963088553100
  0.0000000000000000  0.0000000000000000  0.6667036911446900
 
  0.00000000E+00  0.00000000E+00  0.00000000E+00
  0.00000000E+00  0.00000000E+00  0.00000000E+00
  0.00000000E+00  0.00000000E+00  0.00000000E+00
  0.00000000E+00  0.00000000E+00  0.00000000E+00
  0.00000000E+00  0.00000000E+00  0.00000000E+00
  0.00000000E+00  0.00000000E+00  0.00000000E+00
  0.00000000E+00  0.00000000E+00  0.00000000E+00
  0.00000000E+00  0.00000000E+00  0.00000000E+00
  0.00000000E+00  0.00000000E+00  0.00000000E+00
  0.00000000E+00  0.00000000E+00  0.00000000E+00
  0.00000000E+00  0.00000000E+00  0.00000000E+00
  0.00000000E+00  0.00000000E+00  0.00000000E+00
