Fe9 Pt3                                 
   1.00000000000000     
     3.6415286923656423    0.0000000000000000    0.0000000000000000
     0.0000000000000000    3.6415286923656423    0.0000000000000000
     0.0000000000000000    0.0000000000000000   10.9345403072938705
  Fe              Pt            
     9     3
Direct
  0.0000000000000000  0.5000000000000000  0.1666112042038037
  0.0000000000000000  0.5000000000000000  0.5000000000000000
  0.0000000000000000  0.5000000000000000  0.8333887957961963
  0.5000000000000000  0.5000000000000000  0.0000000000000000
  0.5000000000000000  0.5000000000000000  0.3332614100733551
  0.5000000000000000  0.5000000000000000  0.6667385899266449
  0.5000000000000000  0.0000000000000000  0.1666112042038037
  0.5000000000000000  0.0000000000000000  0.5000000000000000
  0.5000000000000000  0.0000000000000000  0.8333887957961963
  0.0000000000000000  0.0000000000000000  0.0000000000000000
  0.0000000000000000  0.0000000000000000  0.3333245045106210
  0.0000000000000000  0.0000000000000000  0.6666754954893790
 
  0.00000000E+00  0.00000000E+00  0.00000000E+00
  0.00000000E+00  0.00000000E+00  0.00000000E+00
  0.00000000E+00  0.00000000E+00  0.00000000E+00
  0.00000000E+00  0.00000000E+00  0.00000000E+00
  0.00000000E+00  0.00000000E+00  0.00000000E+00
  0.00000000E+00  0.00000000E+00  0.00000000E+00
  0.00000000E+00  0.00000000E+00  0.00000000E+00
  0.00000000E+00  0.00000000E+00  0.00000000E+00
  0.00000000E+00  0.00000000E+00  0.00000000E+00
  0.00000000E+00  0.00000000E+00  0.00000000E+00
  0.00000000E+00  0.00000000E+00  0.00000000E+00
  0.00000000E+00  0.00000000E+00  0.00000000E+00
