Fe9 Pt3                                 
   1.00000000000000     
     3.6422638251452382    0.0000000000000000    0.0000000000000000
     0.0000000000000000    3.6422638251452382   -0.0000000000000000
     0.0000000000000000    0.0000000000000000   10.9301268281004962
  Fe              Pt            
     9     3
Direct
  0.0000000000000000  0.5000000000000000  0.1666765173751651
  0.0000000000000000  0.5000000000000000  0.5000000000000000
  0.0000000000000000  0.5000000000000000  0.8333234826248350
  0.5000000000000000  0.5000000000000000  0.0000000000000000
  0.5000000000000000  0.5000000000000000  0.3332930058604408
  0.5000000000000000  0.5000000000000000  0.6667069941395594
  0.5000000000000000  0.0000000000000000  0.1666765173751651
  0.5000000000000000  0.0000000000000000  0.5000000000000000
  0.5000000000000000  0.0000000000000000  0.8333234826248350
  0.0000000000000000  0.0000000000000000  0.0000000000000000
  0.0000000000000000  0.0000000000000000  0.3333094872253261
  0.0000000000000000  0.0000000000000000  0.6666905127746738
 
  0.00000000E+00  0.00000000E+00  0.00000000E+00
  0.00000000E+00  0.00000000E+00  0.00000000E+00
  0.00000000E+00  0.00000000E+00  0.00000000E+00
  0.00000000E+00  0.00000000E+00  0.00000000E+00
  0.00000000E+00  0.00000000E+00  0.00000000E+00
  0.00000000E+00  0.00000000E+00  0.00000000E+00
  0.00000000E+00  0.00000000E+00  0.00000000E+00
  0.00000000E+00  0.00000000E+00  0.00000000E+00
  0.00000000E+00  0.00000000E+00  0.00000000E+00
  0.00000000E+00  0.00000000E+00  0.00000000E+00
  0.00000000E+00  0.00000000E+00  0.00000000E+00
  0.00000000E+00  0.00000000E+00  0.00000000E+00
