Fe9 Pt3                                 
   1.00000000000000     
     3.7634588367325930    0.0000000000000000    0.0000000000000000
     0.0000000000000000    3.7634588367325930   -0.0000000000000000
     0.0000000000000000   -0.0000000000000000   11.5083553638362144
  Fe              Pt            
     9     3
Direct
  0.0000000000000000  0.5000000000000000  0.1666748314624722
  0.0000000000000000  0.5000000000000000  0.4996739765130069
  0.0000000000000000  0.5000000000000000  0.8336651910381697
  0.5000000000000000  0.5000000000000000  0.0088786287533312
  0.5000000000000000  0.5000000000000000  0.3244488264023823
  0.5000000000000000  0.5000000000000000  0.6666657456774151
  0.5000000000000000  0.0000000000000000  0.1666748314624722
  0.5000000000000000  0.0000000000000000  0.4996739765130069
  0.5000000000000000  0.0000000000000000  0.8336651910381697
  0.0000000000000000  0.0000000000000000  0.9970926579482237
  0.0000000000000000  0.0000000000000000  0.3362729920844022
  0.0000000000000000  0.0000000000000000  0.6666131511069263
 
  0.00000000E+00  0.00000000E+00  0.00000000E+00
  0.00000000E+00  0.00000000E+00  0.00000000E+00
  0.00000000E+00  0.00000000E+00  0.00000000E+00
  0.00000000E+00  0.00000000E+00  0.00000000E+00
  0.00000000E+00  0.00000000E+00  0.00000000E+00
  0.00000000E+00  0.00000000E+00  0.00000000E+00
  0.00000000E+00  0.00000000E+00  0.00000000E+00
  0.00000000E+00  0.00000000E+00  0.00000000E+00
  0.00000000E+00  0.00000000E+00  0.00000000E+00
  0.00000000E+00  0.00000000E+00  0.00000000E+00
  0.00000000E+00  0.00000000E+00  0.00000000E+00
  0.00000000E+00  0.00000000E+00  0.00000000E+00
