Fe9 Pt3                                 
   1.00000000000000     
     3.8559803366900383    0.0000000000000000    0.0000000000000000
     0.0000000000000000    3.8559803366900383    0.0000000000000000
    -0.0000000000000000   -0.0000000000000000   11.5680145379620765
  Fe              Pt            
     9     3
Direct
  1.0000000000000000  0.5000000000000000  0.1666868844739091
  0.0000000000000000  0.5000000000000000  0.5000000000000000
  0.0000000000000000  0.5000000000000000  0.8333131155260909
  0.5000000000000000  0.5000000000000000  0.0000000000000000
  0.5000000000000000  0.5000000000000000  0.3333528093350340
  0.5000000000000000  0.5000000000000000  0.6666471906649660
  0.5000000000000000  0.0000000000000000  0.1666868844739091
  0.5000000000000000  0.0000000000000000  0.5000000000000000
  0.5000000000000000  0.0000000000000000  0.8333131155260909
  0.0000000000000000  0.0000000000000000  0.0000000000000000
  1.0000000000000000  0.0000000000000000  0.3333445991713609
  0.0000000000000000  0.0000000000000000  0.6666554008286391
 
  0.00000000E+00  0.00000000E+00  0.00000000E+00
  0.00000000E+00  0.00000000E+00  0.00000000E+00
  0.00000000E+00  0.00000000E+00  0.00000000E+00
  0.00000000E+00  0.00000000E+00  0.00000000E+00
  0.00000000E+00  0.00000000E+00  0.00000000E+00
  0.00000000E+00  0.00000000E+00  0.00000000E+00
  0.00000000E+00  0.00000000E+00  0.00000000E+00
  0.00000000E+00  0.00000000E+00  0.00000000E+00
  0.00000000E+00  0.00000000E+00  0.00000000E+00
  0.00000000E+00  0.00000000E+00  0.00000000E+00
  0.00000000E+00  0.00000000E+00  0.00000000E+00
  0.00000000E+00  0.00000000E+00  0.00000000E+00
