Fe9 Pt3                                 
   1.00000000000000     
     3.8559803366900383    0.0000000000000000    0.0000000000000000
     0.0000000000000000    3.8559803366900383    0.0000000000000000
     0.0000000000000000    0.0000000000000000   11.5680145379620765
  Fe              Pt            
     9     3
Direct
  0.0000000000000000  0.5000000000000000  0.1666868844739113
  0.0000000000000000  0.5000000000000000  0.5000000000000000
  0.0000000000000000  0.5000000000000000  0.8333131155260887
  0.5000000000000000  0.5000000000000000  0.0000000000000000
  0.5000000000000000  0.5000000000000000  0.3333528093350324
  0.5000000000000000  0.5000000000000000  0.6666471906649676
  0.5000000000000000  0.0000000000000000  0.1666868844739113
  0.5000000000000000  0.0000000000000000  0.5000000000000000
  0.5000000000000000  0.0000000000000000  0.8333131155260887
  0.0000000000000000  0.0000000000000000  0.0000000000000000
  0.0000000000000000  0.0000000000000000  0.3333445991713617
  0.0000000000000000  0.0000000000000000  0.6666554008286383
 
  0.00000000E+00  0.00000000E+00  0.00000000E+00
  0.00000000E+00  0.00000000E+00  0.00000000E+00
  0.00000000E+00  0.00000000E+00  0.00000000E+00
  0.00000000E+00  0.00000000E+00  0.00000000E+00
  0.00000000E+00  0.00000000E+00  0.00000000E+00
  0.00000000E+00  0.00000000E+00  0.00000000E+00
  0.00000000E+00  0.00000000E+00  0.00000000E+00
  0.00000000E+00  0.00000000E+00  0.00000000E+00
  0.00000000E+00  0.00000000E+00  0.00000000E+00
  0.00000000E+00  0.00000000E+00  0.00000000E+00
  0.00000000E+00  0.00000000E+00  0.00000000E+00
  0.00000000E+00  0.00000000E+00  0.00000000E+00
