Fe9 Pt3                                 
   1.00000000000000     
     3.6784531572457970    0.0000000000000000    0.0000000000000000
     0.0000000000000000    3.6784531572457970   -0.0000000000000000
     0.0000000000000000    0.0000000000000000   11.1595449897750427
  Fe              Pt            
     9     3
Direct
  0.0000000000000000  0.5000000000000000  0.1666855950009227
  0.0000000000000000  0.5000000000000000  0.4991787804946917
  0.0000000000000000  0.5000000000000000  0.8338371341115172
  0.5000000000000000  0.5000000000000000  0.0046955955948209
  0.5000000000000000  0.5000000000000000  0.3370247588985909
  0.5000000000000000  0.5000000000000000  0.6641606003934734
  0.5000000000000000  0.0000000000000000  0.1666855950009227
  0.5000000000000000  0.0000000000000000  0.4991787804946917
  0.5000000000000000  0.0000000000000000  0.8338371341115172
  0.0000000000000000  0.0000000000000000  0.9985276101068123
  0.0000000000000000  0.0000000000000000  0.3296766508153769
  0.0000000000000000  0.0000000000000000  0.6665117649766552
 
  0.00000000E+00  0.00000000E+00  0.00000000E+00
  0.00000000E+00  0.00000000E+00  0.00000000E+00
  0.00000000E+00  0.00000000E+00  0.00000000E+00
  0.00000000E+00  0.00000000E+00  0.00000000E+00
  0.00000000E+00  0.00000000E+00  0.00000000E+00
  0.00000000E+00  0.00000000E+00  0.00000000E+00
  0.00000000E+00  0.00000000E+00  0.00000000E+00
  0.00000000E+00  0.00000000E+00  0.00000000E+00
  0.00000000E+00  0.00000000E+00  0.00000000E+00
  0.00000000E+00  0.00000000E+00  0.00000000E+00
  0.00000000E+00  0.00000000E+00  0.00000000E+00
  0.00000000E+00  0.00000000E+00  0.00000000E+00
