Fe9 Pt3                                 
   1.00000000000000     
     3.6777001625893613    0.0000000000000000    0.0000000000000000
     0.0000000000000000    3.6777001625893613    0.0000000000000000
     0.0000000000000000    0.0000000000000000   11.1641152035622504
  Fe              Pt            
     9     3
Direct
  0.0000000000000000  0.5000000000000000  0.1666120858595690
  0.0000000000000000  0.5000000000000000  0.4991532461970110
  0.0000000000000000  0.5000000000000000  0.8339332985509174
  0.5000000000000000  0.5000000000000000  0.0046842369622979
  0.5000000000000000  0.5000000000000000  0.3369565879014615
  0.5000000000000000  0.5000000000000000  0.6642316670351036
  0.5000000000000000  0.0000000000000000  0.1666120858595690
  0.5000000000000000  0.0000000000000000  0.4991532461970110
  0.5000000000000000  0.0000000000000000  0.8339332985509174
  0.0000000000000000  0.0000000000000000  0.9985314269614420
  0.0000000000000000  0.0000000000000000  0.3297442868297864
  0.0000000000000000  0.0000000000000000  0.6664545330949281
 
  0.00000000E+00  0.00000000E+00  0.00000000E+00
  0.00000000E+00  0.00000000E+00  0.00000000E+00
  0.00000000E+00  0.00000000E+00  0.00000000E+00
  0.00000000E+00  0.00000000E+00  0.00000000E+00
  0.00000000E+00  0.00000000E+00  0.00000000E+00
  0.00000000E+00  0.00000000E+00  0.00000000E+00
  0.00000000E+00  0.00000000E+00  0.00000000E+00
  0.00000000E+00  0.00000000E+00  0.00000000E+00
  0.00000000E+00  0.00000000E+00  0.00000000E+00
  0.00000000E+00  0.00000000E+00  0.00000000E+00
  0.00000000E+00  0.00000000E+00  0.00000000E+00
  0.00000000E+00  0.00000000E+00  0.00000000E+00
