ALGO = All
EDIFF = 1e-06
EDIFFG = -0.01
ENCUT = 520
GGA = Pe
IBRION = 2
ISIF = 4
ISMEAR = 1
ISPIN = 2
KPAR = 4
LCHARG = True
LORBIT = 11
LREAL = False
LWAVE = False
MAGMOM = 1*-2.486 1*2.592 1*2.559 1*-2.55 1*2.536 1*2.731 1*-2.486 1*2.592 1*2.559 1*-0.045 1*0.058 1*0.271
NELM = 200
NSW = 100
PREC = Accurate
SIGMA = 0.2
