ALGO = Normal
EDIFF = 1e-06
EDIFFG = -0.01
ENCUT = 520
GGA = Pe
IBRION = -1
ISIF = 4
ISMEAR = -5
ISPIN = 2
KPAR = 4
LCHARG = True
LORBIT = 11
LREAL = False
LWAVE = False
MAGMOM = 1*-2.405 1*2.553 1*2.505 1*-2.47 1*2.489 1*2.678 1*-2.405 1*2.553 1*2.505 1*-0.045 1*0.065 1*0.265
NELM = 200
NSW = 0
PREC = Accurate
SIGMA = 0.2
