Fe9 Pt3                                 
   1.00000000000000     
     3.7901499150485241    0.0000000000000000    0.0000000000000000
     0.0000000000000000    3.7901499150485241    0.0000000000000000
     0.0000000000000000    0.0000000000000000   11.5556747989164847
  Fe              Pt            
     9     3
Direct
  0.0000000000000000  0.5000000000000000  0.1666434874401901
  0.0000000000000000  0.5000000000000000  0.4993936676817512
  0.0000000000000000  0.5000000000000000  0.8320623221562613
  0.5000000000000000  0.5000000000000000  0.0071464734010789
  0.5000000000000000  0.5000000000000000  0.3424546663360601
  0.5000000000000000  0.5000000000000000  0.6630698500268650
  0.5000000000000000  0.0000000000000000  0.1666434874401901
  0.5000000000000000  0.0000000000000000  0.4993936676817512
  0.5000000000000000  0.0000000000000000  0.8320623221562613
  0.0000000000000000  0.0000000000000000  0.9970361103611509
  0.0000000000000000  0.0000000000000000  0.3285059377196689
  0.0000000000000000  0.0000000000000000  0.6655880075987426
 
  0.00000000E+00  0.00000000E+00  0.00000000E+00
  0.00000000E+00  0.00000000E+00  0.00000000E+00
  0.00000000E+00  0.00000000E+00  0.00000000E+00
  0.00000000E+00  0.00000000E+00  0.00000000E+00
  0.00000000E+00  0.00000000E+00  0.00000000E+00
  0.00000000E+00  0.00000000E+00  0.00000000E+00
  0.00000000E+00  0.00000000E+00  0.00000000E+00
  0.00000000E+00  0.00000000E+00  0.00000000E+00
  0.00000000E+00  0.00000000E+00  0.00000000E+00
  0.00000000E+00  0.00000000E+00  0.00000000E+00
  0.00000000E+00  0.00000000E+00  0.00000000E+00
  0.00000000E+00  0.00000000E+00  0.00000000E+00
