Fe9 Pt3                                 
   1.00000000000000     
     3.7901499150485241    0.0000000000000000    0.0000000000000000
     0.0000000000000000    3.7901499150485241    0.0000000000000000
     0.0000000000000000    0.0000000000000000   11.5556747989164847
  Fe              Pt            
     9     3
Direct
  0.0000000000000000  0.5000000000000000  0.1666434874401882
  0.0000000000000000  0.5000000000000000  0.4993936676817534
  1.0000000000000000  0.5000000000000000  0.8320623221562649
  0.5000000000000000  0.5000000000000000  0.0071464734010757
  0.5000000000000000  0.5000000000000000  0.3424546663360621
  0.5000000000000000  0.5000000000000000  0.6630698500268651
  0.5000000000000000  0.0000000000000000  0.1666434874401882
  0.5000000000000000  0.0000000000000000  0.4993936676817534
  0.5000000000000000  0.0000000000000000  0.8320623221562649
  0.0000000000000000  0.0000000000000000  0.9970361103611527
  0.0000000000000000  0.0000000000000000  0.3285059377196694
  0.0000000000000000  0.0000000000000000  0.6655880075987406
 
  0.00000000E+00  0.00000000E+00  0.00000000E+00
  0.00000000E+00  0.00000000E+00  0.00000000E+00
  0.00000000E+00  0.00000000E+00  0.00000000E+00
  0.00000000E+00  0.00000000E+00  0.00000000E+00
  0.00000000E+00  0.00000000E+00  0.00000000E+00
  0.00000000E+00  0.00000000E+00  0.00000000E+00
  0.00000000E+00  0.00000000E+00  0.00000000E+00
  0.00000000E+00  0.00000000E+00  0.00000000E+00
  0.00000000E+00  0.00000000E+00  0.00000000E+00
  0.00000000E+00  0.00000000E+00  0.00000000E+00
  0.00000000E+00  0.00000000E+00  0.00000000E+00
  0.00000000E+00  0.00000000E+00  0.00000000E+00
