ALGO = All
EDIFF = 1e-06
EDIFFG = -0.01
ENCUT = 520
GGA = Pe
IBRION = 2
ISIF = 4
ISMEAR = 1
ISPIN = 2
KPAR = 4
LCHARG = True
LORBIT = 11
LREAL = False
LWAVE = False
MAGMOM = 1*-2.748 1*2.747 1*2.76 1*-2.771 1*2.735 1*2.868 1*-2.748 1*2.747 1*2.76 1*-0.047 1*0.041 1*0.275
NELM = 200
NSW = 100
PREC = Accurate
SIGMA = 0.2
