ALGO = All
EDIFF = 1e-06
EDIFFG = -0.01
ENCUT = 520
GGA = Pe
IBRION = 2
ISIF = 4
ISMEAR = 1
ISPIN = 2
KPAR = 4
LCHARG = True
LORBIT = 11
LREAL = False
LWAVE = False
MAGMOM = 1*-2.814 1*2.776 1*2.798 1*-2.831 1*2.771 1*2.89 1*-2.814 1*2.776 1*2.798 1*-0.053 1*0.029 1*0.273
NELM = 200
NSW = 100
PREC = Accurate
SIGMA = 0.2
