Fe9 Pt3                                 
   1.00000000000000     
     3.7629055178602995    0.0000000000000000    0.0000000000000000
     0.0000000000000000    3.7629055178602995    0.0000000000000000
     0.0000000000000000    0.0000000000000000   11.2998676022281206
  Fe              Pt            
     9     3
Direct
  0.0000000000000000  0.5000000000000000  0.1664849952642768
  0.0000000000000000  0.5000000000000000  0.5000000000000000
  0.0000000000000000  0.5000000000000000  0.8335150047357232
  0.5000000000000000  0.5000000000000000  0.0000000000000000
  0.5000000000000000  0.5000000000000000  0.3330579709730088
  0.5000000000000000  0.5000000000000000  0.6669420290269912
  0.5000000000000000  0.0000000000000000  0.1664849952642768
  0.5000000000000000  0.0000000000000000  0.5000000000000000
  0.5000000000000000  0.0000000000000000  0.8335150047357232
  0.0000000000000000  0.0000000000000000  0.0000000000000000
  0.0000000000000000  0.0000000000000000  0.3331691537432349
  0.0000000000000000  0.0000000000000000  0.6668308462567651
 
  0.00000000E+00  0.00000000E+00  0.00000000E+00
  0.00000000E+00  0.00000000E+00  0.00000000E+00
  0.00000000E+00  0.00000000E+00  0.00000000E+00
  0.00000000E+00  0.00000000E+00  0.00000000E+00
  0.00000000E+00  0.00000000E+00  0.00000000E+00
  0.00000000E+00  0.00000000E+00  0.00000000E+00
  0.00000000E+00  0.00000000E+00  0.00000000E+00
  0.00000000E+00  0.00000000E+00  0.00000000E+00
  0.00000000E+00  0.00000000E+00  0.00000000E+00
  0.00000000E+00  0.00000000E+00  0.00000000E+00
  0.00000000E+00  0.00000000E+00  0.00000000E+00
  0.00000000E+00  0.00000000E+00  0.00000000E+00
