Fe9 Pt3                                 
   1.00000000000000     
     3.7629055178602995   -0.0000000000000000    0.0000000000000000
    -0.0000000000000000    3.7629055178602995    0.0000000000000000
     0.0000000000000000    0.0000000000000000   11.2998676022281206
  Fe              Pt            
     9     3
Direct
  1.0000000000000000  0.5000000000000000  0.1664849952642738
  0.0000000000000000  0.5000000000000000  0.5000000000000000
  0.0000000000000000  0.5000000000000000  0.8335150047357262
  0.5000000000000000  0.5000000000000000  0.0000000000000000
  0.5000000000000000  0.5000000000000000  0.3330579709730080
  0.5000000000000000  0.5000000000000000  0.6669420290269920
  0.5000000000000000  0.0000000000000000  0.1664849952642738
  0.5000000000000000  0.0000000000000000  0.5000000000000000
  0.5000000000000000  0.0000000000000000  0.8335150047357262
  0.0000000000000000  0.0000000000000000  0.0000000000000000
  1.0000000000000000  0.0000000000000000  0.3331691537432351
  0.0000000000000000  0.0000000000000000  0.6668308462567648
 
  0.00000000E+00  0.00000000E+00  0.00000000E+00
  0.00000000E+00  0.00000000E+00  0.00000000E+00
  0.00000000E+00  0.00000000E+00  0.00000000E+00
  0.00000000E+00  0.00000000E+00  0.00000000E+00
  0.00000000E+00  0.00000000E+00  0.00000000E+00
  0.00000000E+00  0.00000000E+00  0.00000000E+00
  0.00000000E+00  0.00000000E+00  0.00000000E+00
  0.00000000E+00  0.00000000E+00  0.00000000E+00
  0.00000000E+00  0.00000000E+00  0.00000000E+00
  0.00000000E+00  0.00000000E+00  0.00000000E+00
  0.00000000E+00  0.00000000E+00  0.00000000E+00
  0.00000000E+00  0.00000000E+00  0.00000000E+00
