ALGO = All
EDIFF = 1e-06
EDIFFG = -0.01
ENCUT = 520
GGA = Pe
IBRION = 2
ISIF = 4
ISMEAR = 1
ISPIN = 2
KPAR = 4
LCHARG = True
LORBIT = 11
LREAL = False
LWAVE = False
MAGMOM = 1*2.781 1*2.782 1*2.781 1*2.78 2*2.783 1*2.781 1*2.782 1*2.781 3*0.31
NELM = 200
NSW = 100
PREC = Accurate
SIGMA = 0.2
