Fe9 Pt3                                 
   1.00000000000000     
     3.8072549720731113    0.0000000000000000    0.0000000000000000
     0.0000000000000000    3.8072549720731113    0.0000000000000000
     0.0000000000000000    0.0000000000000000   11.6590396590529775
  Fe              Pt            
     9     3
Direct
  0.0000000000000000  0.5000000000000000  0.1666682843321265
  0.0000000000000000  0.5000000000000000  0.4999274319395965
  0.0000000000000000  0.5000000000000000  0.8333985503229733
  0.5000000000000000  0.5000000000000000  0.0116998852809229
  0.5000000000000000  0.5000000000000000  0.3216605500572515
  0.5000000000000000  0.5000000000000000  0.6666612053539598
  0.5000000000000000  0.0000000000000000  0.1666682843321265
  0.5000000000000000  0.0000000000000000  0.4999274319395965
  0.5000000000000000  0.0000000000000000  0.8333985503229733
  0.0000000000000000  0.0000000000000000  0.9965723880820357
  0.0000000000000000  0.0000000000000000  0.3367815720399151
  0.0000000000000000  0.0000000000000000  0.6666358659965148
 
  0.00000000E+00  0.00000000E+00  0.00000000E+00
  0.00000000E+00  0.00000000E+00  0.00000000E+00
  0.00000000E+00  0.00000000E+00  0.00000000E+00
  0.00000000E+00  0.00000000E+00  0.00000000E+00
  0.00000000E+00  0.00000000E+00  0.00000000E+00
  0.00000000E+00  0.00000000E+00  0.00000000E+00
  0.00000000E+00  0.00000000E+00  0.00000000E+00
  0.00000000E+00  0.00000000E+00  0.00000000E+00
  0.00000000E+00  0.00000000E+00  0.00000000E+00
  0.00000000E+00  0.00000000E+00  0.00000000E+00
  0.00000000E+00  0.00000000E+00  0.00000000E+00
  0.00000000E+00  0.00000000E+00  0.00000000E+00
