Fe9 Pt3                                 
   1.00000000000000     
     3.8073879751850348    0.0000000000000000    0.0000000000000000
     0.0000000000000000    3.8073879751850348    0.0000000000000000
     0.0000000000000000    0.0000000000000000   11.6582251050953669
  Fe              Pt            
     9     3
Direct
  0.0000000000000000  0.5000000000000000  0.1666552682227539
  0.0000000000000000  0.5000000000000000  0.4999154795580926
  0.0000000000000000  0.5000000000000000  0.8334261295945445
  0.5000000000000000  0.5000000000000000  0.0116209536599449
  0.5000000000000000  0.5000000000000000  0.3217020852679695
  0.5000000000000000  0.5000000000000000  0.6666867650626870
  0.5000000000000000  0.0000000000000000  0.1666552682227539
  0.5000000000000000  0.0000000000000000  0.4999154795580926
  0.5000000000000000  0.0000000000000000  0.8334261295945445
  0.0000000000000000  0.0000000000000000  0.9964278014972173
  0.0000000000000000  0.0000000000000000  0.3368845145561269
  0.0000000000000000  0.0000000000000000  0.6666841252052720
 
  0.00000000E+00  0.00000000E+00  0.00000000E+00
  0.00000000E+00  0.00000000E+00  0.00000000E+00
  0.00000000E+00  0.00000000E+00  0.00000000E+00
  0.00000000E+00  0.00000000E+00  0.00000000E+00
  0.00000000E+00  0.00000000E+00  0.00000000E+00
  0.00000000E+00  0.00000000E+00  0.00000000E+00
  0.00000000E+00  0.00000000E+00  0.00000000E+00
  0.00000000E+00  0.00000000E+00  0.00000000E+00
  0.00000000E+00  0.00000000E+00  0.00000000E+00
  0.00000000E+00  0.00000000E+00  0.00000000E+00
  0.00000000E+00  0.00000000E+00  0.00000000E+00
  0.00000000E+00  0.00000000E+00  0.00000000E+00
