Fe9 Pt3                                 
   1.00000000000000     
     3.6169695102854509    0.0000000000000000    0.0000000000000000
     0.0000000000000000    3.6169695102854509    0.0000000000000000
     0.0000000000000000    0.0000000000000000   10.8542207206025427
  Fe              Pt            
     9     3
Direct
  0.0000000000000000  0.5000000000000000  0.1666765173751656
  0.0000000000000000  0.5000000000000000  0.5000000000000000
  0.0000000000000000  0.5000000000000000  0.8333234826248344
  0.5000000000000000  0.5000000000000000  0.0000000000000000
  0.5000000000000000  0.5000000000000000  0.3332930058604404
  0.5000000000000000  0.5000000000000000  0.6667069941395596
  0.5000000000000000  0.0000000000000000  0.1666765173751656
  0.5000000000000000  0.0000000000000000  0.5000000000000000
  0.5000000000000000  0.0000000000000000  0.8333234826248344
  0.0000000000000000  0.0000000000000000  0.0000000000000000
  0.0000000000000000  0.0000000000000000  0.3333094872253284
  0.0000000000000000  0.0000000000000000  0.6666905127746716
 
  0.00000000E+00  0.00000000E+00  0.00000000E+00
  0.00000000E+00  0.00000000E+00  0.00000000E+00
  0.00000000E+00  0.00000000E+00  0.00000000E+00
  0.00000000E+00  0.00000000E+00  0.00000000E+00
  0.00000000E+00  0.00000000E+00  0.00000000E+00
  0.00000000E+00  0.00000000E+00  0.00000000E+00
  0.00000000E+00  0.00000000E+00  0.00000000E+00
  0.00000000E+00  0.00000000E+00  0.00000000E+00
  0.00000000E+00  0.00000000E+00  0.00000000E+00
  0.00000000E+00  0.00000000E+00  0.00000000E+00
  0.00000000E+00  0.00000000E+00  0.00000000E+00
  0.00000000E+00  0.00000000E+00  0.00000000E+00
