Fe9 Pt3                                 
   1.00000000000000     
     3.8380834694231263    0.0000000000000000    0.0000000000000000
     0.0000000000000000    3.8380834694231263    0.0000000000000000
     0.0000000000000000    0.0000000000000000   11.6761486692516403
  Fe              Pt            
     9     3
Direct
  0.0000000000000000  0.5000000000000000  0.1666545387504641
  0.0000000000000000  0.5000000000000000  0.4993963879450689
  0.0000000000000000  0.5000000000000000  0.8311726679472144
  0.5000000000000000  0.5000000000000000  0.0087553985220268
  0.5000000000000000  0.5000000000000000  0.3451373253997971
  0.5000000000000000  0.5000000000000000  0.6623895702101947
  0.5000000000000000  0.0000000000000000  0.1666545387504641
  0.5000000000000000  0.0000000000000000  0.4993963879450689
  0.5000000000000000  0.0000000000000000  0.8311726679472144
  0.0000000000000000  0.0000000000000000  0.9963173694745677
  0.0000000000000000  0.0000000000000000  0.3279157645836719
  0.0000000000000000  0.0000000000000000  0.6650373825242397
 
  0.00000000E+00  0.00000000E+00  0.00000000E+00
  0.00000000E+00  0.00000000E+00  0.00000000E+00
  0.00000000E+00  0.00000000E+00  0.00000000E+00
  0.00000000E+00  0.00000000E+00  0.00000000E+00
  0.00000000E+00  0.00000000E+00  0.00000000E+00
  0.00000000E+00  0.00000000E+00  0.00000000E+00
  0.00000000E+00  0.00000000E+00  0.00000000E+00
  0.00000000E+00  0.00000000E+00  0.00000000E+00
  0.00000000E+00  0.00000000E+00  0.00000000E+00
  0.00000000E+00  0.00000000E+00  0.00000000E+00
  0.00000000E+00  0.00000000E+00  0.00000000E+00
  0.00000000E+00  0.00000000E+00  0.00000000E+00
