Fe9 Pt3                                 
   1.00000000000000     
     3.8380834694231263    0.0000000000000000    0.0000000000000000
     0.0000000000000000    3.8380834694231263    0.0000000000000000
     0.0000000000000000    0.0000000000000000   11.6761486692516403
  Fe              Pt            
     9     3
Direct
  1.0000000000000000  0.5000000000000000  0.1666545387504673
  0.0000000000000000  0.5000000000000000  0.4993963879450669
  0.0000000000000000  0.5000000000000000  0.8311726679472130
  0.5000000000000000  0.5000000000000000  0.0087553985220302
  0.5000000000000000  0.5000000000000000  0.3451373253997984
  0.5000000000000000  0.5000000000000000  0.6623895702101967
  0.5000000000000000  0.0000000000000000  0.1666545387504673
  0.5000000000000000  0.0000000000000000  0.4993963879450669
  0.5000000000000000  0.0000000000000000  0.8311726679472130
  0.0000000000000000  0.0000000000000000  0.9963173694745671
  0.0000000000000000  0.0000000000000000  0.3279157645836736
  0.0000000000000000  0.0000000000000000  0.6650373825242395
 
  0.00000000E+00  0.00000000E+00  0.00000000E+00
  0.00000000E+00  0.00000000E+00  0.00000000E+00
  0.00000000E+00  0.00000000E+00  0.00000000E+00
  0.00000000E+00  0.00000000E+00  0.00000000E+00
  0.00000000E+00  0.00000000E+00  0.00000000E+00
  0.00000000E+00  0.00000000E+00  0.00000000E+00
  0.00000000E+00  0.00000000E+00  0.00000000E+00
  0.00000000E+00  0.00000000E+00  0.00000000E+00
  0.00000000E+00  0.00000000E+00  0.00000000E+00
  0.00000000E+00  0.00000000E+00  0.00000000E+00
  0.00000000E+00  0.00000000E+00  0.00000000E+00
  0.00000000E+00  0.00000000E+00  0.00000000E+00
