ALGO = Normal
EDIFF = 1e-06
EDIFFG = -0.01
ENCUT = 520
GGA = Pe
IBRION = -1
ISIF = 4
ISMEAR = -5
ISPIN = 2
KPAR = 4
LCHARG = True
LORBIT = 11
LREAL = False
LWAVE = False
MAGMOM = 1*-2.848 1*2.812 1*2.842 1*-2.853 1*2.807 1*2.919 1*-2.848 1*2.812 1*2.842 1*-0.045 1*0.028 1*0.275
NELM = 200
NSW = 0
PREC = Accurate
SIGMA = 0.2
